*SPEF "IEEE 1481-1998"
*DESIGN "mips"
*DATE "Thu Apr 30 14:58:59 2026"
*VENDOR "Cadence Design Systems, Inc."
*PROGRAM "Innovus"
*VERSION "18.10-p002_1"
*DESIGN_FLOW "COUPLING C" "PIN_CAP NONE" "NAME_SCOPE LOCAL"
*DIVIDER /
*DELIMITER :
*BUS_DELIMITER []
*T_UNIT 1 NS
*C_UNIT 1 PF
*R_UNIT 1 OHM
*L_UNIT 1 HENRY

// MMMC spef file for corner 'RC_typ'

*NAME_MAP

*1 FE_OFN18_n182
*2 FE_OFN17_n197
*3 FE_OFN16_n196
*4 FE_OFN15_n191
*5 FE_OFN14_n189
*6 FE_OFN13_n188
*7 FE_OFN12_n187
*8 FE_OFN11_n186
*9 FE_OFN10_n185
*10 FE_OFN9_n184
*11 FE_OFN8_n183
*12 FE_OFN7_n562
*13 FE_OFN6_n410
*14 FE_OFN5_n409
*15 FE_OFN4_n366
*16 FE_OFN3_n365
*17 FE_OFN2_n310
*18 FE_OFN1_n214
*19 FE_OFN0_n190
*20 memdata[7]
*21 memdata[6]
*22 memdata[5]
*23 memdata[4]
*24 memdata[3]
*25 memdata[2]
*26 memdata[1]
*27 memdata[0]
*28 adr[7]
*29 adr[6]
*30 adr[5]
*31 adr[4]
*32 adr[3]
*33 adr[2]
*34 adr[1]
*35 adr[0]
*36 clk
*37 reset
*38 test_si
*39 test_se
*40 memread
*41 memwrite
*42 n446
*43 n447
*44 n448
*45 n449
*46 n450
*47 n454
*48 n455
*49 n456
*50 n457
*51 n458
*52 n459
*53 n460
*54 n461
*55 n462
*56 n463
*57 n464
*58 n465
*59 n466
*60 n468
*61 n469
*62 n470
*63 n471
*64 n472
*65 n473
*66 n474
*67 n475
*68 n476
*69 n477
*70 n478
*71 n479
*72 n480
*73 n481
*74 n482
*75 n483
*76 n484
*77 n485
*78 n486
*79 n487
*80 n488
*81 n489
*82 n490
*83 n491
*84 n492
*85 n493
*86 n494
*87 n495
*88 n496
*89 n497
*90 n498
*91 n499
*92 n500
*93 n501
*94 n502
*95 n503
*96 n504
*97 n505
*98 n506
*99 n507
*100 n508
*101 n509
*102 n510
*103 n511
*104 n512
*105 n513
*106 n514
*107 n515
*108 n516
*109 n517
*110 n518
*111 n519
*112 n520
*113 n521
*114 n522
*115 n523
*116 n524
*117 n525
*118 n526
*119 n527
*120 n528
*121 n529
*122 n530
*123 n531
*124 n532
*125 n533
*126 n534
*127 n535
*128 n536
*129 n537
*130 n538
*131 n539
*132 n540
*133 n1
*134 n2
*135 n3
*136 n4
*137 n5
*138 n6
*139 n7
*140 n8
*141 n9
*142 n10
*143 n11
*144 n12
*145 n13
*146 n14
*147 n15
*148 n16
*149 n17
*150 n18
*151 n19
*152 n20
*153 n21
*154 n22
*155 n23
*156 n24
*157 n25
*158 n26
*159 n27
*160 n28
*161 n29
*162 n30
*163 n31
*164 n32
*165 n33
*166 n34
*167 n35
*168 n36
*169 n42
*170 n45
*171 n46
*172 n47
*173 n48
*174 n49
*175 n50
*176 n51
*177 n52
*178 n53
*179 n54
*180 n55
*181 n56
*182 n57
*183 n58
*184 n59
*185 n60
*186 n61
*187 n62
*188 n63
*189 n64
*190 n65
*191 n66
*192 n67
*193 n69
*194 n71
*195 n73
*196 n76
*197 n77
*198 n78
*199 n79
*200 n80
*201 n81
*202 n82
*203 n83
*204 n84
*205 n85
*206 n86
*207 n87
*208 n88
*209 n91
*210 n92
*211 n93
*212 n94
*213 n95
*214 n96
*215 n97
*216 n98
*217 n99
*218 n100
*219 n101
*220 n102
*221 n103
*222 n104
*223 n105
*224 n106
*225 n107
*226 n108
*227 n109
*228 n110
*229 n111
*230 n112
*231 n113
*232 n114
*233 n115
*234 n116
*235 n117
*236 n118
*237 n119
*238 n120
*239 n121
*240 n122
*241 n123
*242 n124
*243 n125
*244 n126
*245 n127
*246 n128
*247 n129
*248 n130
*249 n131
*250 n132
*251 n133
*252 n134
*253 n135
*254 n136
*255 n137
*256 n138
*257 n139
*258 n140
*259 n141
*260 n142
*261 n143
*262 n144
*263 n145
*264 n146
*265 n147
*266 n148
*267 n149
*268 n150
*269 n151
*270 n152
*271 n153
*272 n154
*273 n155
*274 n156
*275 n157
*276 n158
*277 n159
*278 n160
*279 n161
*280 n162
*281 n163
*282 n164
*283 n165
*284 n166
*285 n167
*286 n168
*287 n169
*288 n170
*289 n180
*290 n181
*291 n182
*292 n183
*293 n184
*294 n185
*295 n186
*296 n187
*297 n188
*298 n189
*299 n190
*300 n191
*301 n192
*302 n193
*303 n194
*304 n195
*305 n196
*306 n197
*307 n198
*308 n199
*309 n200
*310 n201
*311 n202
*312 n203
*313 n204
*314 n205
*315 n206
*316 n207
*317 n208
*318 n209
*319 n210
*320 n211
*321 n212
*322 n213
*323 n214
*324 n215
*325 n216
*326 n217
*327 n218
*328 n219
*329 n220
*330 n221
*331 n222
*332 n223
*333 n224
*334 n225
*335 n226
*336 n227
*337 n228
*338 n229
*339 n230
*340 n231
*341 n232
*342 n233
*343 n234
*344 n235
*345 n236
*346 n237
*347 n238
*348 n239
*349 n240
*350 n241
*351 n242
*352 n243
*353 n244
*354 n245
*355 n246
*356 n247
*357 n248
*358 n249
*359 n250
*360 n251
*361 n252
*362 n253
*363 n254
*364 n255
*365 n256
*366 n257
*367 n258
*368 n259
*369 n260
*370 n261
*371 n262
*372 n263
*373 n264
*374 n265
*375 n266
*376 n267
*377 n268
*378 n269
*379 n270
*380 n271
*381 n272
*382 n273
*383 n274
*384 n275
*385 n276
*386 n277
*387 n278
*388 n279
*389 n280
*390 n281
*391 n282
*392 n283
*393 n284
*394 n285
*395 n286
*396 n287
*397 n288
*398 n289
*399 n290
*400 n291
*401 n292
*402 n293
*403 n294
*404 n295
*405 n296
*406 n297
*407 n298
*408 n299
*409 n300
*410 n301
*411 n302
*412 n303
*413 n304
*414 n305
*415 n306
*416 n307
*417 n308
*418 n309
*419 n310
*420 n311
*421 n312
*422 n313
*423 n314
*424 n315
*425 n316
*426 n317
*427 n318
*428 n319
*429 n320
*430 n321
*431 n322
*432 n323
*433 n324
*434 n325
*435 n326
*436 n327
*437 n328
*438 n329
*439 n330
*440 n331
*441 n332
*442 n333
*443 n334
*444 n335
*445 n336
*446 n337
*447 n338
*448 n339
*449 n340
*450 n341
*451 n342
*452 n343
*453 n344
*454 n345
*455 n346
*456 n347
*457 n348
*458 n349
*459 n350
*460 n351
*461 n353
*462 n354
*463 n355
*464 n356
*465 n357
*466 n358
*467 n359
*468 n360
*469 n361
*470 n362
*471 n363
*472 n364
*473 n365
*474 n366
*475 n369
*476 n370
*477 n371
*478 n372
*479 n373
*480 n374
*481 n375
*482 n376
*483 n377
*484 n378
*485 n379
*486 n380
*487 n381
*488 n382
*489 n383
*490 n384
*491 n385
*492 n386
*493 n387
*494 n388
*495 n389
*496 n390
*497 n391
*498 n392
*499 n393
*500 n394
*501 n395
*502 n396
*503 n397
*504 n398
*505 n399
*506 n400
*507 n401
*508 n402
*509 n403
*510 n404
*511 n405
*512 n406
*513 n407
*514 n408
*515 n409
*516 n410
*517 n413
*518 n414
*519 n415
*520 n416
*521 n417
*522 n418
*523 n419
*524 n420
*525 n421
*526 n422
*527 n423
*528 n424
*529 n425
*530 n426
*531 n427
*532 n428
*533 n429
*534 n430
*535 n431
*536 n432
*537 n433
*538 n434
*539 n435
*540 n436
*541 n437
*542 n438
*543 n439
*544 n440
*545 n441
*546 n442
*547 n443
*548 n444
*549 n445
*550 n451
*551 n452
*552 n453
*553 n467
*554 n541
*555 n542
*556 n543
*557 n544
*558 n545
*559 n546
*560 n547
*561 n548
*562 n549
*563 n550
*564 n551
*565 n552
*566 n553
*567 n554
*568 n555
*569 n556
*570 n557
*571 n558
*572 n559
*573 n560
*574 n561
*575 n562
*576 n563
*577 n564
*578 n565
*579 n567
*580 n569
*581 n571
*582 n573
*583 n575
*584 n577
*585 n579
*586 n581
*587 n583
*588 n584
*589 n585
*590 n586
*591 n587
*592 n588
*593 n589
*594 n590
*595 n591
*596 n592
*597 n593
*598 n594
*599 n595
*600 n596
*601 n597
*602 n598
*603 n599
*604 n600
*605 n601
*606 n602
*607 n603
*608 n604
*609 n605
*610 n606
*611 cont_nextstate[3]
*612 cont_nextstate[2]
*613 cont_nextstate[1]
*614 cont_nextstate[0]
*615 cont_state[3]
*616 cont_state[2]
*617 cont_state[1]
*618 cont_state[0]
*619 dp_rd2[7]
*620 dp_rd2[6]
*621 dp_rd2[5]
*622 dp_rd2[4]
*623 dp_rd2[3]
*624 dp_rd2[2]
*625 dp_rd2[1]
*626 dp_rd2[0]
*627 dp_rd1[7]
*628 dp_rd1[6]
*629 dp_rd1[5]
*630 dp_rd1[4]
*631 dp_rd1[3]
*632 dp_rd1[2]
*633 dp_rd1[1]
*634 dp_rd1[0]
*635 writedata[7]
*636 writedata[6]
*637 writedata[5]
*638 writedata[4]
*639 writedata[3]
*640 writedata[2]
*641 writedata[1]
*642 writedata[0]
*643 test_so
*644 FE_OFC18_n182
*645 FE_OFC17_n197
*646 FE_OFC16_n196
*647 FE_OFC15_n191
*648 FE_OFC14_n189
*649 FE_OFC13_n188
*650 FE_OFC12_n187
*651 FE_OFC11_n186
*652 FE_OFC10_n185
*653 FE_OFC9_n184
*654 FE_OFC8_n183
*655 FE_OFC7_n562
*656 FE_OFC6_n410
*657 FE_OFC5_n409
*658 FE_OFC4_n366
*659 FE_OFC3_n365
*660 FE_OFC2_n310
*661 FE_OFC1_n214
*662 FE_OFC0_n190
*663 cont_state_reg_2_
*664 cont_state_reg_1_
*665 cont_state_reg_0_
*666 cont_state_reg_3_
*667 U1
*668 U2
*669 U3
*670 U4
*671 U5
*672 U6
*673 U7
*674 U8
*675 U9
*676 U10
*677 U11
*678 U12
*679 U13
*680 U14
*681 U15
*682 U16
*683 U17
*684 U18
*685 U19
*686 U20
*687 U21
*688 U22
*689 U23
*690 U24
*691 U25
*692 U26
*693 U27
*694 U28
*695 U29
*696 U30
*697 U31
*698 U32
*699 U33
*700 U34
*701 U36
*702 U42
*703 U45
*704 U46
*705 U47
*706 U48
*707 U49
*708 U50
*709 U51
*710 U52
*711 U53
*712 U54
*713 U55
*714 U56
*715 U57
*716 U58
*717 U59
*718 U60
*719 U61
*720 U62
*721 U63
*722 U64
*723 U65
*724 U66
*725 U67
*726 U69
*727 U71
*728 U73
*729 U76
*730 U77
*731 U78
*732 U79
*733 U80
*734 U81
*735 U82
*736 U83
*737 U84
*738 U85
*739 U86
*740 U87
*741 U88
*742 U90
*743 U91
*744 U92
*745 U93
*746 U94
*747 U95
*748 U96
*749 U97
*750 U98
*751 U99
*752 U100
*753 U101
*754 U102
*755 U103
*756 U104
*757 U105
*758 U106
*759 U107
*760 U108
*761 U109
*762 U110
*763 U111
*764 U112
*765 U113
*766 U114
*767 U115
*768 U116
*769 U117
*770 U118
*771 U119
*772 U120
*773 U121
*774 U122
*775 U123
*776 U124
*777 U125
*778 U126
*779 U127
*780 U128
*781 U129
*782 U130
*783 U131
*784 U132
*785 U133
*786 U134
*787 U135
*788 U136
*789 U137
*790 U138
*791 U139
*792 U140
*793 U141
*794 U142
*795 U143
*796 U144
*797 U145
*798 U146
*799 U147
*800 U148
*801 U149
*802 U150
*803 U151
*804 U152
*805 U153
*806 U154
*807 U155
*808 U156
*809 U157
*810 U158
*811 U159
*812 U160
*813 U161
*814 U162
*815 U163
*816 U164
*817 U165
*818 U166
*819 U167
*820 U168
*821 U169
*822 U170
*823 U180
*824 U181
*825 U182
*826 U183
*827 U184
*828 U185
*829 U186
*830 U187
*831 U188
*832 U189
*833 U190
*834 U191
*835 U192
*836 U193
*837 U194
*838 U195
*839 U196
*840 U197
*841 U198
*842 U199
*843 U200
*844 U201
*845 U202
*846 U203
*847 U204
*848 U205
*849 U206
*850 U207
*851 U208
*852 U209
*853 U210
*854 U211
*855 U212
*856 U213
*857 U214
*858 U215
*859 U216
*860 U217
*861 U218
*862 U219
*863 U220
*864 U221
*865 U222
*866 U223
*867 U224
*868 U225
*869 U226
*870 U227
*871 U228
*872 U229
*873 U230
*874 U231
*875 U232
*876 U233
*877 U234
*878 U235
*879 U236
*880 U237
*881 U238
*882 U239
*883 U240
*884 U241
*885 U242
*886 U243
*887 U244
*888 U245
*889 U246
*890 U247
*891 U248
*892 U249
*893 U250
*894 U251
*895 U252
*896 U253
*897 U254
*898 U255
*899 U256
*900 U257
*901 U258
*902 U259
*903 U260
*904 U261
*905 U262
*906 U263
*907 U264
*908 U265
*909 U266
*910 U267
*911 U268
*912 U269
*913 U270
*914 U271
*915 U272
*916 U273
*917 U274
*918 U275
*919 U276
*920 U277
*921 U278
*922 U279
*923 U280
*924 U281
*925 U282
*926 U283
*927 U284
*928 U285
*929 U286
*930 U287
*931 U288
*932 U289
*933 U290
*934 U291
*935 U292
*936 U293
*937 U294
*938 U295
*939 U296
*940 U297
*941 U298
*942 U299
*943 U300
*944 U301
*945 U302
*946 U303
*947 U304
*948 U305
*949 U306
*950 U307
*951 U308
*952 U309
*953 U310
*954 U311
*955 U312
*956 U313
*957 U314
*958 U315
*959 U316
*960 U317
*961 U318
*962 U319
*963 U320
*964 U321
*965 U322
*966 U323
*967 U324
*968 U325
*969 U326
*970 U327
*971 U328
*972 U329
*973 U330
*974 U331
*975 U332
*976 U333
*977 U334
*978 U335
*979 U336
*980 U337
*981 U338
*982 U339
*983 U340
*984 U341
*985 U342
*986 U343
*987 U344
*988 U345
*989 U346
*990 U347
*991 U348
*992 U349
*993 U350
*994 U351
*995 U352
*996 U353
*997 U354
*998 U355
*999 U356
*1000 U357
*1001 U358
*1002 U359
*1003 U360
*1004 U361
*1005 U362
*1006 U363
*1007 U364
*1008 U365
*1009 U366
*1010 U367
*1011 U368
*1012 U369
*1013 U370
*1014 U371
*1015 U372
*1016 U373
*1017 U374
*1018 U375
*1019 U376
*1020 U377
*1021 U378
*1022 U379
*1023 U380
*1024 U381
*1025 U382
*1026 U383
*1027 U384
*1028 U385
*1029 U386
*1030 U387
*1031 U388
*1032 U389
*1033 U390
*1034 U391
*1035 U392
*1036 U393
*1037 U394
*1038 U395
*1039 U396
*1040 U397
*1041 U398
*1042 U399
*1043 U400
*1044 U401
*1045 U402
*1046 U403
*1047 U404
*1048 U405
*1049 U406
*1050 U407
*1051 U408
*1052 U409
*1053 U410
*1054 U411
*1055 U412
*1056 U413
*1057 U414
*1058 U415
*1059 U416
*1060 U417
*1061 U418
*1062 U419
*1063 U420
*1064 U421
*1065 U422
*1066 U423
*1067 U424
*1068 U425
*1069 U426
*1070 U427
*1071 U428
*1072 U429
*1073 U430
*1074 U431
*1075 U432
*1076 U433
*1077 U434
*1078 U435
*1079 U436
*1080 U437
*1081 U438
*1082 U439
*1083 U440
*1084 U441
*1085 U442
*1086 U443
*1087 U444
*1088 U445
*1089 U446
*1090 U447
*1091 U448
*1092 U449
*1093 U450
*1094 U451
*1095 U452
*1096 U453
*1097 U454
*1098 U455
*1099 U456
*1100 U457
*1101 U458
*1102 U459
*1103 U460
*1104 U461
*1105 U462
*1106 U463
*1107 U464
*1108 U465
*1109 U466
*1110 U467
*1111 U468
*1112 U469
*1113 U470
*1114 U471
*1115 U472
*1116 U473
*1117 U474
*1118 U475
*1119 U476
*1120 U477
*1121 U478
*1122 U479
*1123 U480
*1124 U481
*1125 U482
*1126 U483
*1127 U484
*1128 U485
*1129 U486
*1130 U487
*1131 U488
*1132 U489
*1133 U490
*1134 U491
*1135 U492
*1136 U495
*1137 U496
*1138 U497
*1139 U498
*1140 U499
*1141 U500
*1142 U501
*1143 U502
*1144 U503
*1145 U504
*1146 U505
*1147 U506
*1148 U507
*1149 U508
*1150 U509
*1151 U510
*1152 U511
*1153 U512
*1154 U513
*1155 U514
*1156 U515
*1157 U516
*1158 U517
*1159 U518
*1160 U519
*1161 U520
*1162 U521
*1163 U522
*1164 U523
*1165 U524
*1166 U525
*1167 U526
*1168 U527
*1169 U528
*1170 U529
*1171 U530
*1172 U531
*1173 U532
*1174 U533
*1175 U534
*1176 U535
*1177 U536
*1178 U537
*1179 U538
*1180 U539
*1181 U540
*1182 U541
*1183 U542
*1184 U543
*1185 U544
*1186 U547
*1187 U548
*1188 U549
*1189 U550
*1190 U551
*1191 U552
*1192 U553
*1193 U554
*1194 U555
*1195 U556
*1196 U558
*1197 U559
*1198 U560
*1199 U561
*1200 U562
*1201 U563
*1202 U564
*1203 U565
*1204 U566
*1205 U567
*1206 U568
*1207 U569
*1208 U570
*1209 U571
*1210 U572
*1211 U573
*1212 U574
*1213 U575
*1214 U576
*1215 U577
*1216 U578
*1217 U579
*1218 U580
*1219 U581
*1220 U582
*1221 U583
*1222 U584
*1223 U585
*1224 U586
*1225 U587
*1226 U588
*1227 U589
*1228 U590
*1229 U591
*1230 U592
*1231 U593
*1232 U594
*1233 U596
*1234 U598
*1235 U600
*1236 U602
*1237 U604
*1238 U606
*1239 U608
*1240 U610
*1241 U612
*1242 U613
*1243 U614
*1244 U615
*1245 U616
*1246 U617
*1247 U618
*1248 U619
*1249 U620
*1250 U621
*1251 U622
*1252 U623
*1253 U624
*1254 U625
*1255 U626
*1256 U627
*1257 U628
*1258 U629
*1259 U630
*1260 U631
*1261 U632
*1262 U633
*1263 U634
*1264 U635
*1265 U636


*PORTS

*36 I *C 0 100.5
*37 I *C 0 250.5
*20 I *C 0 400.5
*21 I *C 0 403.5
*22 I *C 0 406.5
*23 I *C 0 409.5
*24 I *C 0 412.5
*25 I *C 0 415.5
*26 I *C 0 418.5
*27 I *C 0 421.5
*40 O *C 198 0
*41 O *C 349.2 0
*28 O *C 578.4 97.5
*29 O *C 578.4 94.5
*30 O *C 578.4 91.5
*31 O *C 578.4 88.5
*32 O *C 578.4 85.5
*33 O *C 578.4 82.5
*34 O *C 578.4 79.5
*35 O *C 578.4 76.5
*635 O *C 578.4 349.5
*636 O *C 578.4 346.5
*637 O *C 578.4 343.5
*638 O *C 578.4 340.5
*639 O *C 578.4 337.5
*640 O *C 578.4 334.5
*641 O *C 578.4 331.5
*642 O *C 578.4 328.5
*38 I *C 102 540
*643 O *C 106.8 540
*39 I *C 104.4 540


*D_NET *1 0.127829

*CONN
*I *826:C I *C 380.4 115.5 *L 0.0325 *D OAI22X1
*I *830:C I *C 282 115.5 *L 0.0325 *D OAI22X1
*I *828:C I *C 301.2 55.5 *L 0.0325 *D OAI22X1
*I *827:C I *C 123.6 55.5 *L 0.0325 *D OAI22X1
*I *825:C I *C 34.8 55.5 *L 0.0325 *D OAI22X1
*I *831:C I *C 44.4 115.5 *L 0.0325 *D OAI22X1
*I *829:C I *C 73.2 154.5 *L 0.0325 *D OAI22X1
*I *644:Y O *C 387.6 115.5 *L 0 *D BUFX2

*CAP
1 *826:C 0.00028335
2 *830:C 0.00041594
3 *828:C 0.00122182
4 *827:C 0.00028335
5 *825:C 0.00028335
6 *831:C 0.00020796
7 *829:C 0.00028335
8 *644:Y 0.00028335
9 *1:8 0.00598746
10 *1:9 0.00043741
11 *1:10 0.00043544
12 *1:11 0.00043544
13 *1:12 0.014832
14 *1:13 0.0166846
15 *1:14 0.00047494
16 *1:15 0.00047494
17 *1:16 0.00430878
18 *1:17 0.00557041
19 *1:18 0.00228685
20 *1:19 0.00173726
21 *1:20 0.01039
22 *1:21 0.00623432
23 *1:22 0.00601755
24 *1:23 0.00050503
25 *1:24 0.00050503
26 *1:25 0.00085397
27 *1:26 0.0009497
28 *1:27 0.0089578
29 *1:28 0.00847924
30 *1:29 0.00209738
31 *1:30 0.00209738
32 *1:31 0.00069166
33 *1:32 0.00065022
34 *1:33 0.0004737
35 *1:34 0.00058595
36 *1:35 0.0004675
37 *1:36 0.00139183
38 *1:37 0.00045335
39 *1:38 0.00045335
40 *1:39 0.00087131
41 *1:40 0.00443903
42 *1:41 0.00038987
43 *1:42 0.00038987
44 *1:27 *602:55 0.0001993
45 *1:28 *602:56 0.0001993
46 *1:27 *602:56 0.00119579
47 *1:28 *602:49 0.00119579
48 *1:27 *602:49 0.00089684
49 *1:28 *602:50 0.00089684
50 *1:12 *602:57 0.00298946
51 *1:13 *602:58 0.00298946
52 *1:13 *602:57 0.00099649
53 *1:18 *602:58 0.00099649

*RES
1 *1:38 *644:Y 4
2 *1:14 *826:C 4
3 *1:37 *1:38 0.3
4 *1:15 *1:14 0.3
5 *1:39 *1:37 4
6 *1:42 *829:C 4
7 *1:27 *1:15 4
8 *1:27 *1:39 0.24
9 *830:C *1:34 0.48
10 *1:41 *1:42 0.24
11 *1:28 *1:27 3.12
12 *1:35 *1:34 4
13 *1:10 *825:C 4
14 *831:C *1:33 0.24
15 *1:29 *1:41 4
16 *1:22 *1:28 4
17 *1:22 *1:35 0.3
18 *1:36 *828:C 1.41
19 *1:11 *1:10 0.3
20 *1:26 *1:33 0.3
21 *1:30 *1:29 0.56
22 *1:8 *1:22 5.7
23 *1:8 *1:36 4
24 *1:32 *1:11 4
25 *1:26 *1:25 0.72
26 *1:40 *1:30 4
27 *1:9 *1:8 0.3
28 *1:23 *827:C 4
29 *1:32 *1:31 0.16
30 *1:20 *1:25 4
31 *1:20 *1:40 4.2
32 *1:12 *1:9 4
33 *1:24 *1:23 0.3
34 *1:31 *1:19 0.1
35 *1:21 *1:20 5.7
36 *1:13 *1:12 5.44
37 *1:13 *1:24 4
38 *1:19 *1:17 0.48
39 *1:17 *1:21 4
40 *1:18 *1:13 0.88
41 *1:17 *1:16 1.44
42 *1:18 *1:16 0.1
*END

*D_NET *2 0.124584

*CONN
*I *887:D I *C 303.6 211.5 *L 0.0332 *D OAI22X1
*I *883:D I *C 358.8 238.5 *L 0.0332 *D OAI22X1
*I *892:D I *C 274.8 358.5 *L 0.0332 *D OAI22X1
*I *885:D I *C 169.2 178.5 *L 0.0332 *D OAI22X1
*I *881:D I *C 176.4 151.5 *L 0.0332 *D OAI22X1
*I *890:D I *C 166.8 238.5 *L 0.0332 *D OAI22X1
*I *894:D I *C 142.8 238.5 *L 0.0332 *D OAI22X1
*I *645:Y O *C 368.4 214.5 *L 0 *D BUFX2

*CAP
1 *887:D 0.00028335
2 *883:D 0.00028335
3 *892:D 0.00028335
4 *885:D 0.00028335
5 *881:D 0.00028335
6 *890:D 0.00028335
7 *894:D 0.00028335
8 *645:Y 0.00028335
9 *2:8 0.00047919
10 *2:9 0.00047919
11 *2:10 0.00218664
12 *2:11 0.00078839
13 *2:12 0.00752135
14 *2:13 0.0074715
15 *2:14 0.00501053
16 *2:15 0.00345337
17 *2:16 0.0016497
18 *2:17 0.0016497
19 *2:18 0.00080997
20 *2:19 0.00107968
21 *2:20 0.00173145
22 *2:21 0.0025998
23 *2:22 0.00056027
24 *2:23 0.00056027
25 *2:24 0.00364637
26 *2:25 0.00865889
27 *2:26 0.00202093
28 *2:27 0.00180766
29 *2:28 0.00069492
30 *2:29 0.00579596
31 *2:30 0.00584342
32 *2:31 0.00544671
33 *2:32 0.00050503
34 *2:33 0.00130648
35 *2:34 0.00247095
36 *2:35 0.0020375
37 *2:36 0.00290008
38 *2:37 0.00290008
39 *2:38 0.00047919
40 *2:39 0.00047919
41 *2:40 0.00189281
42 *2:41 0.00109136
43 *2:42 0.00092926
44 *2:43 0.0004491
45 *2:44 0.00113465
46 *2:45 0.00248485
47 *2:46 0.00249089
48 *2:47 0.00314027
49 *2:48 0.00314027
50 *2:49 0.00247342
51 *2:50 0.00251723
52 *2:51 0.0008296
53 *2:52 0.00113151
54 *2:24 *304:33 0.00149473
55 *2:25 *304:34 0.00149473
56 *2:25 *304:33 0.00249122
57 *2:31 *304:34 0.00249122
58 *2:25 *304:34 0.00059789
59 *2:31 *304:35 0.00059789
60 *2:22 *304:34 0.0001993
61 *2:23 *304:35 0.0001993
62 *2:28 *304:31 1.166e-05
63 *2:26 *304:32 1.166e-05
64 *2:26 *304:31 1.166e-05
65 *2:27 *304:32 1.166e-05
66 *2:29 *304:31 0.00045242
67 *2:30 *304:32 0.00045242
68 *2:12 *40:10 0.00153469
69 *2:13 *40:9 0.00153469

*RES
1 *2:43 *883:D 4
2 *2:43 *2:42 0.3
3 *2:42 *2:34 0.72
4 *2:16 *892:D 4
5 *2:35 *2:34 1.8
6 *2:17 *2:16 1.5
7 *2:35 *2:52 0.24
8 *2:47 *2:17 4
9 *2:40 *645:Y 4
10 *2:40 *2:52 0.9
11 *2:51 *881:D 4
12 *2:48 *2:47 0.88
13 *2:41 *2:40 0.9
14 *2:15 *2:51 0.72
15 *2:49 *2:48 4
16 *2:29 *2:41 4
17 *2:15 *2:14 2.7
18 *2:14 *885:D 4
19 *2:50 *2:49 2.4
20 *2:38 *887:D 4
21 *2:30 *2:29 2
22 *2:14 *2:21 2.1
23 *2:45 *2:50 0.24
24 *2:39 *2:38 0.3
25 *2:30 *2:28 0.1
26 *2:21 *2:19 0.48
27 *2:46 *2:45 2.4
28 *2:26 *2:39 4
29 *2:26 *2:28 0.16
30 *2:19 *2:18 0.6
31 *2:12 *2:46 0.24
32 *2:27 *2:26 0.48
33 *2:22 *2:18 4
34 *2:13 *2:12 8.4
35 *2:27 *2:24 0.1
36 *2:23 *2:22 0.16
37 *2:25 *2:13 4
38 *2:25 *2:24 1.52
39 *2:11 *2:23 4
40 *2:31 *2:25 2.48
41 *2:11 *2:10 0.6
42 *2:10 *2:31 4
43 *2:10 *2:20 1.5
44 *2:44 *2:20 0.24
45 *2:32 *890:D 4
46 *2:44 *2:33 0.9
47 *2:33 *2:32 0.3
48 *2:36 *2:33 4
49 *2:37 *2:36 0.8
50 *2:9 *2:37 4
51 *2:8 *894:D 4
52 *2:9 *2:8 0.3
*END

*D_NET *3 0.127126

*CONN
*I *876:D I *C 315.6 151.5 *L 0.0332 *D OAI22X1
*I *878:D I *C 279.6 271.5 *L 0.0332 *D OAI22X1
*I *874:D I *C 368.4 178.5 *L 0.0332 *D OAI22X1
*I *875:D I *C 116.4 151.5 *L 0.0332 *D OAI22X1
*I *877:D I *C 68.4 178.5 *L 0.0332 *D OAI22X1
*I *873:D I *C 44.4 178.5 *L 0.0332 *D OAI22X1
*I *879:D I *C 44.4 211.5 *L 0.0332 *D OAI22X1
*I *646:Y O *C 370.8 154.5 *L 0 *D BUFX2

*CAP
1 *876:D 0.00028335
2 *878:D 0.00028335
3 *874:D 0.00028335
4 *875:D 0.00028335
5 *877:D 0.00028335
6 *873:D 0.00028335
7 *879:D 0.00028335
8 *646:Y 0.00028335
9 *3:8 0.0033136
10 *3:9 0.00336345
11 *3:10 0.00776961
12 *3:11 0.00771976
13 *3:12 0.00347964
14 *3:13 0.00078413
15 *3:14 0.00297886
16 *3:15 0.00356488
17 *3:16 0.0036714
18 *3:17 0.022032
19 *3:18 0.0189566
20 *3:19 0.00896842
21 *3:20 0.00201272
22 *3:21 0.00201272
23 *3:22 0.00589307
24 *3:23 0.00101684
25 *3:24 0.00101684
26 *3:25 0.00821344
27 *3:26 0.00288494
28 *3:27 0.00038987
29 *3:28 0.00572125
30 *3:29 0.00084007
31 *3:30 0.00084007
32 *3:31 0.00038673
33 *3:32 0.00038673
34 *3:33 0.00083508
35 *3:34 0.00078837
36 *3:35 0.00047297
37 *3:36 0.00234398
38 *3:37 0.00220107

*RES
1 *3:8 *878:D 4
2 *3:9 *3:8 3
3 *3:34 *874:D 4
4 *3:10 *3:9 0.24
5 *3:33 *3:34 0.6
6 *3:13 *873:D 4
7 *3:14 *879:D 4
8 *3:11 *3:10 7.2
9 *3:33 *3:37 0.24
10 *3:30 *877:D 4
11 *3:13 *3:12 0.6
12 *3:12 *3:14 2.7
13 *3:24 *3:11 4
14 *3:36 *646:Y 4
15 *3:36 *3:37 1.8
16 *3:30 *3:29 0.6
17 *3:26 *3:12 4
18 *3:24 *3:23 0.24
19 *3:31 *876:D 4
20 *3:35 *3:36 0.3
21 *3:25 *3:29 4
22 *3:26 *3:25 0.8
23 *3:20 *3:23 4
24 *3:31 *3:32 0.24
25 *3:22 *3:35 4
26 *3:25 *3:28 1.6
27 *3:21 *3:20 1.8
28 *3:19 *3:32 4
29 *3:19 *3:22 1.76
30 *3:15 *3:28 4
31 *3:17 *3:21 4
32 *3:17 *3:19 1.12
33 *3:16 *875:D 4
34 *3:16 *3:15 3.3
35 *3:18 *3:17 5.52
36 *3:16 *3:27 0.24
37 *3:27 *3:18 4
*END

*D_NET *4 0.132729

*CONN
*I *836:D I *C 349.2 178.5 *L 0.0332 *D OAI22X1
*I *834:D I *C 358.8 211.5 *L 0.0332 *D OAI22X1
*I *838:D I *C 277.2 298.5 *L 0.0332 *D OAI22X1
*I *835:D I *C 118.8 211.5 *L 0.0332 *D OAI22X1
*I *833:D I *C 32.4 211.5 *L 0.0332 *D OAI22X1
*I *839:D I *C 42 238.5 *L 0.0332 *D OAI22X1
*I *837:D I *C 68.4 238.5 *L 0.0332 *D OAI22X1
*I *647:Y O *C 358.8 175.5 *L 0 *D BUFX2

*CAP
1 *836:D 0.00028335
2 *834:D 0.00028335
3 *838:D 0.00028335
4 *835:D 0.00028335
5 *833:D 0.00028335
6 *839:D 0.00028335
7 *837:D 0.00028335
8 *647:Y 0.00028335
9 *4:8 0.00300235
10 *4:9 0.00326579
11 *4:10 0.00346772
12 *4:11 0.00346772
13 *4:12 0.0035264
14 *4:13 0.00140251
15 *4:14 0.00251376
16 *4:15 0.00117511
17 *4:16 0.00117511
18 *4:17 0.00349175
19 *4:18 0.0010933
20 *4:19 0.00284507
21 *4:20 0.00498008
22 *4:21 0.00075829
23 *4:22 0.00075829
24 *4:23 0.00128787
25 *4:24 0.00128787
26 *4:25 0.00769175
27 *4:26 0.00769175
28 *4:27 0.00047919
29 *4:28 0.00047919
30 *4:29 0.00127003
31 *4:30 0.00127003
32 *4:31 0.0024757
33 *4:32 0.0024757
34 *4:33 0.00773955
35 *4:34 0.0103423
36 *4:35 0.00303694
37 *4:36 0.0176283
38 *4:37 0.0176283
39 *4:38 0.00113869
40 *4:39 0.00109725
41 *4:40 0.00038987
42 *4:41 0.00038987
43 *4:42 0.00282667
44 *4:43 0.00272015
45 *4:36 *298:14 0.00109614
46 *4:37 *298:15 0.00109614

*RES
1 *4:22 *836:D 4
2 *4:22 *4:21 0.6
3 *4:24 *4:21 4
4 *4:18 *647:Y 4
5 *4:24 *4:23 0.32
6 *4:18 *4:17 0.9
7 *4:17 *4:23 4
8 *4:17 *4:20 2.7
9 *4:20 *834:D 4
10 *4:20 *4:19 2.4
11 *4:9 *4:19 0.48
12 *4:10 *838:D 4
13 *4:9 *4:8 3
14 *4:11 *4:10 3.3
15 *4:33 *4:8 4
16 *4:34 *4:11 4
17 *4:34 *4:33 2.56
18 *4:35 *4:34 1.04
19 *4:35 *4:36 0.1
20 *4:37 *4:36 5.6
21 *4:38 *4:37 0.1
22 *4:39 *4:38 0.32
23 *4:43 *4:39 4
24 *4:42 *837:D 4
25 *4:42 *4:43 2.7
26 *4:41 *4:42 0.24
27 *4:28 *833:D 4
28 *4:31 *4:41 4
29 *4:28 *4:27 0.3
30 *4:32 *4:31 0.72
31 *4:15 *835:D 4
32 *4:30 *4:27 4
33 *4:40 *4:32 4
34 *4:16 *4:15 0.9
35 *4:30 *4:29 0.32
36 *4:14 *839:D 4
37 *4:14 *4:40 0.24
38 *4:25 *4:16 4
39 *4:12 *4:29 4
40 *4:12 *4:14 2.4
41 *4:26 *4:25 2.56
42 *4:13 *4:12 1.2
43 *4:13 *4:26 4
*END

*D_NET *5 0.0932282

*CONN
*I *871:C I *C 145.2 214.5 *L 0.0325 *D OAI22X1
*I *894:C I *C 145.2 235.5 *L 0.0325 *D OAI22X1
*I *855:C I *C 140.4 115.5 *L 0.0325 *D OAI22X1
*I *879:C I *C 46.8 214.5 *L 0.0325 *D OAI22X1
*I *847:C I *C 147.6 94.5 *L 0.0325 *D OAI22X1
*I *839:C I *C 44.4 235.5 *L 0.0325 *D OAI22X1
*I *1246:A I *C 44.4 154.5 *L 0.0333 *D INVX2
*I *831:D I *C 42 118.5 *L 0.0332 *D OAI22X1
*I *863:C I *C 44.4 94.5 *L 0.0325 *D OAI22X1
*I *648:Y O *C 152.4 214.5 *L 0 *D BUFX2

*CAP
1 *871:C 0.00028335
2 *894:C 0.00028335
3 *855:C 0.0006239
4 *879:C 0.00020796
5 *847:C 0.00028335
6 *839:C 0.00041594
7 *1246:A 0.00028335
8 *831:D 0.00028335
9 *863:C 0.00028335
10 *648:Y 0.00028335
11 *5:10 0.00366544
12 *5:11 0.0094078
13 *5:12 0.00838113
14 *5:13 0.0021492
15 *5:14 0.00273271
16 *5:15 0.00083397
17 *5:16 0.00223194
18 *5:17 0.00355689
19 *5:18 0.00052479
20 *5:19 0.00217774
21 *5:20 0.00597771
22 *5:21 0.00583693
23 *5:22 0.00182392
24 *5:23 0.00084007
25 *5:24 0.00088992
26 *5:25 0.00079391
27 *5:26 0.0129802
28 *5:27 0.00083397
29 *5:28 0.00341515
30 *5:29 0.00058595
31 *5:30 0.00230451
32 *5:31 0.00280528
33 *5:32 0.00037797
34 *5:33 0.00107968
35 *5:34 0.00080997
36 *5:35 0.0129802

*RES
1 *5:23 *831:D 4
2 *5:22 *863:C 4
3 *5:24 *5:23 0.6
4 *839:C *5:29 0.48
5 *5:22 *5:21 1.8
6 *5:24 *5:21 0.24
7 *879:C *5:32 0.24
8 *5:30 *5:29 4
9 *5:20 *1246:A 4
10 *5:21 *5:20 4.2
11 *5:31 *5:32 4
12 *5:31 *5:30 2.1
13 *5:20 *5:19 2.1
14 *5:27 *5:31 0.6
15 *5:16 *894:C 4
16 *5:19 *5:18 0.24
17 *5:28 *5:27 0.24
18 *5:14 *871:C 4
19 *5:14 *5:16 2.1
20 *5:34 *648:Y 4
21 *5:18 *5:17 0.3
22 *5:17 *5:28 3
23 *5:15 *5:14 0.6
24 *5:33 *5:34 0.6
25 *5:26 *5:17 4
26 *5:15 *5:10 0.24
27 *5:10 *5:33 0.48
28 *5:26 *5:35 3.36
29 *5:13 *847:C 4
30 *5:11 *5:10 3
31 *5:11 *5:35 4
32 *5:13 *5:12 2.1
33 *5:12 *5:11 6.3
34 *5:25 *5:12 4
35 *855:C *5:25 0.72
*END

*D_NET *6 0.0771921

*CONN
*I *892:C I *C 277.2 355.5 *L 0.0325 *D OAI22X1
*I *838:C I *C 279.6 295.5 *L 0.0325 *D OAI22X1
*I *878:C I *C 282 274.5 *L 0.0325 *D OAI22X1
*I *1247:A I *C 267.6 214.5 *L 0.0333 *D INVX2
*I *870:C I *C 282 214.5 *L 0.0325 *D OAI22X1
*I *854:C I *C 282 175.5 *L 0.0325 *D OAI22X1
*I *830:D I *C 279.6 118.5 *L 0.0332 *D OAI22X1
*I *846:C I *C 284.4 55.5 *L 0.0325 *D OAI22X1
*I *862:C I *C 262.8 55.5 *L 0.0325 *D OAI22X1
*I *649:Y O *C 286.8 295.5 *L 0 *D BUFX2

*CAP
1 *892:C 0.00028335
2 *838:C 0.00028335
3 *878:C 0.00028335
4 *1247:A 0.00028335
5 *870:C 0.00028335
6 *854:C 0.00028335
7 *830:D 0.00028335
8 *846:C 0.00028335
9 *862:C 0.00028335
10 *649:Y 0.00028335
11 *6:10 0.00045335
12 *6:11 0.00045335
13 *6:12 0.00619031
14 *6:13 0.00047919
15 *6:14 0.00604432
16 *6:15 0.00306163
17 *6:16 0.00312434
18 *6:17 0.00315479
19 *6:18 0.0031986
20 *6:19 0.00047919
21 *6:20 0.00047919
22 *6:21 0.00965177
23 *6:22 0.00643698
24 *6:23 0.00268103
25 *6:24 0.00268103
26 *6:25 0.00746166
27 *6:26 0.00575422
28 *6:27 0.00388696
29 *6:28 0.00050503
30 *6:29 0.00055488
31 *6:30 0.00151821
32 *6:31 0.00151821
33 *6:32 0.00259947
34 *6:33 0.00060973
35 *6:25 *522:5 0.00038367
36 *6:26 *522:6 0.00038367
37 *6:26 *522:5 7.673e-05
38 *6:27 *522:6 7.673e-05
39 *6:27 *522:5 0.0002302
40 *6:21 *522:6 0.0002302

*RES
1 *6:17 *892:C 4
2 *6:18 *6:17 3
3 *6:20 *1247:A 4
4 *6:18 *6:15 0.24
5 *6:20 *6:19 0.3
6 *6:16 *838:C 4
7 *6:16 *6:15 3
8 *6:33 *649:Y 4
9 *6:11 *862:C 4
10 *6:30 *6:19 4
11 *6:16 *6:32 0.24
12 *6:32 *6:33 0.48
13 *6:11 *6:10 0.3
14 *6:30 *6:31 0.48
15 *6:25 *878:C 4
16 *6:25 *6:32 2.1
17 *6:24 *6:10 4
18 *6:26 *6:31 4
19 *6:26 *6:25 5.7
20 *6:13 *846:C 4
21 *6:24 *6:23 0.72
22 *6:28 *830:D 4
23 *6:27 *870:C 4
24 *6:27 *6:26 0.3
25 *6:13 *6:12 0.3
26 *6:12 *6:23 4
27 *6:29 *6:28 0.3
28 *6:21 *854:C 4
29 *6:21 *6:27 3.9
30 *6:12 *6:14 5.7
31 *6:29 *6:22 0.24
32 *6:22 *6:21 6
33 *6:22 *6:14 0.24
*END

*D_NET *7 0.115384

*CONN
*I *890:C I *C 169.2 235.5 *L 0.0325 *D OAI22X1
*I *837:C I *C 70.8 235.5 *L 0.0325 *D OAI22X1
*I *869:C I *C 154.8 154.5 *L 0.0325 *D OAI22X1
*I *853:C I *C 147.6 154.5 *L 0.0325 *D OAI22X1
*I *1241:A I *C 73.2 175.5 *L 0.0333 *D INVX2
*I *877:C I *C 70.8 175.5 *L 0.0325 *D OAI22X1
*I *845:C I *C 142.8 55.5 *L 0.0325 *D OAI22X1
*I *829:D I *C 70.8 151.5 *L 0.0332 *D OAI22X1
*I *861:C I *C 68.4 94.5 *L 0.0325 *D OAI22X1
*I *650:Y O *C 176.4 235.5 *L 0 *D BUFX2

*CAP
1 *890:C 0.00028335
2 *837:C 0.00028335
3 *869:C 0.00089427
4 *853:C 0.00061092
5 *1241:A 0.00020796
6 *877:C 0.00037797
7 *845:C 0.00102686
8 *829:D 0.00028335
9 *861:C 0.00028335
10 *650:Y 0.00028335
11 *7:10 0.00102459
12 *7:11 0.011143
13 *7:12 0.0104017
14 *7:13 0.00344004
15 *7:14 0.00339019
16 *7:15 0.00202185
17 *7:16 0.00202185
18 *7:17 0.00075333
19 *7:18 0.00106064
20 *7:19 0.00181311
21 *7:20 0.00208282
22 *7:21 0.00226451
23 *7:22 0.00582838
24 *7:23 0.00399806
25 *7:24 0.00345021
26 *7:25 0.00343184
27 *7:26 0.00408702
28 *7:27 0.00490125
29 *7:28 0.00198663
30 *7:29 0.00198663
31 *7:30 0.00035157
32 *7:31 0.00209738
33 *7:32 0.00209738
34 *7:33 0.00580624
35 *7:34 0.00638889
36 *7:35 0.00101684
37 *7:36 0.00075617
38 *7:37 0.00350692
39 *7:38 0.00119687
40 *7:39 0.00109758
41 *7:40 0.00078839
42 *7:41 0.00078839
43 *7:42 0.00208403
44 *7:43 0.00208403
45 *7:44 0.00038987
46 *7:45 0.00399649
47 *7:46 0.00045588
48 *7:47 0.00045588
49 *7:48 0.00102712
50 *7:49 0.00102712
51 *7:30 *294:4 7.673e-05
52 *7:24 *294:5 7.673e-05
53 *7:24 *294:4 0.00038367
54 *7:25 *294:5 0.00038367
55 *7:30 *292:2 7.673e-05
56 *7:24 *292:3 7.673e-05
57 *7:24 *292:2 0.00061388
58 *7:25 *292:3 0.00061388
59 *7:47 *292:2 2.331e-05
60 *7:46 *292:3 2.331e-05

*RES
1 *7:40 *837:C 4
2 *7:41 *7:40 0.6
3 *7:32 *7:41 4
4 *7:32 *7:31 0.56
5 *7:16 *861:C 4
6 *7:42 *7:31 4
7 *7:16 *7:15 1.8
8 *7:43 *7:42 1.8
9 *7:36 *7:15 4
10 *7:46 *890:C 4
11 *7:28 *7:43 4
12 *7:36 *7:18 0.2
13 *7:46 *7:47 0.3
14 *7:29 *7:28 0.56
15 *7:18 *7:17 0.16
16 *7:48 *7:47 4
17 *877:C *1241:A 0.24
18 *7:26 *7:29 4
19 *7:44 *829:D 4
20 *7:37 *7:17 4
21 *7:48 *7:49 0.24
22 *7:27 *877:C 4
23 *7:27 *7:26 3.6
24 *7:44 *7:45 0.24
25 *7:37 *7:45 3.3
26 *7:30 *7:49 4
27 *7:39 *7:27 0.9
28 *7:45 *7:20 0.48
29 *7:24 *650:Y 4
30 *7:24 *7:30 0.3
31 *7:35 *7:39 4
32 *7:20 *7:19 1.5
33 *7:25 *7:24 3.9
34 *7:35 *7:34 0.24
35 *7:34 *7:19 4
36 *7:13 *7:25 0.24
37 *7:34 *7:33 1.44
38 *7:14 *7:13 3.3
39 *7:23 *7:33 0.1
40 *7:21 *7:14 4
41 *853:C *869:C 0.705
42 *7:23 *7:22 1.12
43 *7:22 *7:21 0.64
44 *7:10 *7:22 4
45 *7:11 *869:C 4
46 *7:11 *7:10 0.9
47 *7:12 *7:11 9.9
48 *7:38 *7:12 4
49 *845:C *7:38 1.185
*END

*D_NET *8 0.0832743

*CONN
*I *887:C I *C 301.2 214.5 *L 0.0325 *D OAI22X1
*I *836:C I *C 351.6 175.5 *L 0.0325 *D OAI22X1
*I *868:C I *C 363.6 154.5 *L 0.0325 *D OAI22X1
*I *860:C I *C 363.6 94.5 *L 0.0325 *D OAI22X1
*I *844:C I *C 363.6 55.5 *L 0.0325 *D OAI22X1
*I *876:C I *C 318 154.5 *L 0.0325 *D OAI22X1
*I *1248:A I *C 344.4 115.5 *L 0.0333 *D INVX2
*I *852:C I *C 327.6 115.5 *L 0.0325 *D OAI22X1
*I *828:D I *C 303.6 58.5 *L 0.0332 *D OAI22X1
*I *651:Y O *C 298.8 214.5 *L 0 *D BUFX2

*CAP
1 *887:C 0.00047833
2 *836:C 0.00028335
3 *868:C 0.00028335
4 *860:C 0.00028335
5 *844:C 0.00028335
6 *876:C 0.00068396
7 *1248:A 0.00093711
8 *852:C 0.00028335
9 *828:D 0.00028335
10 *651:Y 0.00019498
11 *8:10 0.00047494
12 *8:11 0.00047494
13 *8:12 0.00344779
14 *8:13 0.00504972
15 *8:14 0.0053573
16 *8:15 0.009508
17 *8:16 0.00548919
18 *8:17 0.00392047
19 *8:18 0.00411631
20 *8:19 0.00234739
21 *8:20 0.0042597
22 *8:21 0.00235252
23 *8:22 0.00233992
24 *8:23 0.00238738
25 *8:24 0.00047919
26 *8:25 0.00047297
27 *8:26 0.00047297
28 *8:27 0.00110712
29 *8:28 0.00389664
30 *8:29 0.002734
31 *8:30 0.00155539
32 *8:31 0.00190046
33 *8:32 0.00190046
34 *8:33 0.00201153
35 *8:34 0.00260276
36 *8:35 0.0020337
37 *8:36 0.00144247
38 *8:37 0.00082018
39 *8:38 0.00050503
40 *8:39 0.00050503
41 *8:40 0.00085397
42 *8:41 0.00038673
43 *8:12 *41:15 7.673e-05
44 *8:13 *41:14 7.673e-05
45 *8:12 *41:13 4.662e-05
46 *8:13 *41:12 4.662e-05
47 *8:12 *41:11 6.993e-05
48 *8:13 *41:3 6.993e-05
49 *8:12 *41:11 4.662e-05
50 *8:13 *41:3 4.662e-05
51 *8:13 *41:11 0.00013987
52 *8:14 *41:3 0.00013987
53 *8:14 *41:11 0.00027973
54 *8:15 *41:3 0.00027973
55 *8:15 *41:11 0.00037297
56 *8:16 *41:3 0.00037297
57 *8:12 *41:10 4.34e-06
58 *8:13 *41:9 4.34e-06

*RES
1 *651:Y *887:C 0.225
2 *8:39 *887:C 4
3 *8:39 *8:38 0.3
4 *8:24 *844:C 4
5 *8:17 *860:C 4
6 *8:32 *868:C 4
7 *8:36 *8:38 4
8 *8:24 *8:18 0.3
9 *8:18 *8:17 3.6
10 *8:25 *836:C 4
11 *8:32 *8:31 1.8
12 *8:36 *8:35 0.4
13 *8:10 *828:D 4
14 *8:22 *8:18 4
15 *8:26 *8:25 0.3
16 *8:30 *8:31 4
17 *8:34 *8:35 0.3
18 *8:11 *8:10 0.3
19 *8:23 *8:22 0.56
20 *8:28 *8:26 4
21 *8:28 *8:30 0.4
22 *8:34 *8:33 0.48
23 *8:21 *8:11 4
24 *8:19 *8:23 0.1
25 *876:C *8:40 0.72
26 *8:29 *8:28 0.8
27 *8:12 *8:33 4
28 *8:21 *8:20 0.8
29 *8:20 *8:19 0.64
30 *8:41 *8:40 4
31 *8:13 *8:29 4
32 *8:13 *8:12 3.6
33 *8:16 *8:20 4
34 *8:41 *8:14 0.24
35 *8:14 *8:13 1.8
36 *8:15 *852:C 4
37 *8:16 *8:15 6
38 *8:15 *8:14 3.9
39 *8:15 *8:37 0.72
40 *8:27 *8:37 4
41 *8:27 *1248:A 0.945
*END

*D_NET *9 0.0805402

*CONN
*I *885:C I *C 166.8 175.5 *L 0.0325 *D OAI22X1
*I *835:C I *C 121.2 214.5 *L 0.0325 *D OAI22X1
*I *875:C I *C 118.8 154.5 *L 0.0325 *D OAI22X1
*I *867:C I *C 164.4 115.5 *L 0.0325 *D OAI22X1
*I *843:C I *C 159.6 55.5 *L 0.0325 *D OAI22X1
*I *851:C I *C 171.6 55.5 *L 0.0325 *D OAI22X1
*I *827:D I *C 121.2 58.5 *L 0.0332 *D OAI22X1
*I *859:C I *C 118.8 34.5 *L 0.0325 *D OAI22X1
*I *1244:A I *C 121.2 34.5 *L 0.0333 *D INVX2
*I *652:Y O *C 171.6 214.5 *L 0 *D BUFX2

*CAP
1 *885:C 0.00028335
2 *835:C 0.00028335
3 *875:C 0.00019498
4 *867:C 0.00028335
5 *843:C 0.00028335
6 *851:C 0.00028335
7 *827:D 0.00028335
8 *859:C 0.00020796
9 *1244:A 0.00037797
10 *652:Y 0.00028335
11 *9:10 0.00142834
12 *9:11 0.00169805
13 *9:12 0.00342491
14 *9:13 0.00335104
15 *9:14 0.00258186
16 *9:15 0.00243587
17 *9:16 0.00411471
18 *9:17 0.00990153
19 *9:18 0.00451182
20 *9:19 0.00451182
21 *9:20 0.00704932
22 *9:21 0.00256915
23 *9:22 0.00246263
24 *9:23 0.00420187
25 *9:24 0.00578863
26 *9:25 0.00187011
27 *9:26 0.00597016
28 *9:27 0.00597016
29 *9:28 0.00038987
30 *9:29 0.00071881
31 *9:30 0.0006191
32 *9:31 0.00045335
33 *9:32 0.00093868
34 *9:33 0.0004491
35 *9:34 0.00036499

*RES
1 *875:C *9:34 0.225
2 *9:10 *652:Y 4
3 *9:25 *9:34 4
4 *9:23 *835:C 4
5 *9:11 *9:10 1.2
6 *9:25 *9:24 1.8
7 *9:24 *9:23 4.2
8 *9:12 *9:11 0.48
9 *9:27 *9:24 4
10 *9:13 *885:C 4
11 *9:13 *9:12 2.7
12 *9:27 *9:26 1.52
13 *9:14 *9:13 0.3
14 *9:14 *9:26 4
15 *9:15 *9:14 2.1
16 *9:16 *9:15 0.24
17 *9:33 *851:C 4
18 *9:17 *867:C 4
19 *9:17 *9:16 3.6
20 *9:32 *9:33 0.3
21 *9:20 *9:17 6.3
22 *9:20 *9:32 0.72
23 *9:29 *9:20 0.48
24 *9:29 *9:30 0.3
25 *9:30 *843:C 4
26 *9:30 *9:31 0.3
27 *9:18 *9:31 4
28 *9:19 *9:18 1.2
29 *9:28 *9:19 4
30 *9:21 *827:D 4
31 *9:21 *9:28 0.24
32 *9:22 *9:21 2.4
33 *1244:A *9:22 4
34 *859:C *1244:A 0.24
*END

*D_NET *10 0.0642346

*CONN
*I *883:C I *C 361.2 235.5 *L 0.0325 *D OAI22X1
*I *834:C I *C 361.2 214.5 *L 0.0325 *D OAI22X1
*I *874:C I *C 370.8 175.5 *L 0.0325 *D OAI22X1
*I *866:C I *C 373.2 175.5 *L 0.0325 *D OAI22X1
*I *1245:A I *C 380.4 154.5 *L 0.0333 *D INVX2
*I *826:D I *C 378 118.5 *L 0.0332 *D OAI22X1
*I *850:C I *C 363.6 115.5 *L 0.0325 *D OAI22X1
*I *858:C I *C 390 55.5 *L 0.0325 *D OAI22X1
*I *842:C I *C 394.8 34.5 *L 0.0325 *D OAI22X1
*I *653:Y O *C 368.4 235.5 *L 0 *D BUFX2

*CAP
1 *883:C 0.00028335
2 *834:C 0.00028335
3 *874:C 0.00037797
4 *866:C 0.00020796
5 *1245:A 0.00028335
6 *826:D 0.00028335
7 *850:C 0.00028335
8 *858:C 0.00041594
9 *842:C 0.00028335
10 *653:Y 0.00028335
11 *10:10 0.00139197
12 *10:11 0.00215317
13 *10:12 0.00115395
14 *10:13 0.00468053
15 *10:14 0.00472724
16 *10:15 0.00361686
17 *10:16 0.00312674
18 *10:17 0.00250404
19 *10:18 0.00293749
20 *10:19 0.00501642
21 *10:20 0.00507309
22 *10:21 0.00091297
23 *10:22 0.00091297
24 *10:23 0.00047494
25 *10:24 0.00251314
26 *10:25 0.00232155
27 *10:26 0.00128064
28 *10:27 0.00113151
29 *10:28 0.00047919
30 *10:29 0.00243272
31 *10:30 0.00058595
32 *10:31 0.00461789
33 *10:32 0.00251523
34 *10:33 0.00048102
35 *10:34 0.00050503
36 *10:35 0.00050503
37 *10:36 0.00038673
38 *10:37 0.00053769
39 *10:10 *306:8 0.00069754
40 *10:11 *306:9 0.00069754
41 *10:11 *306:8 0.00029895
42 *10:12 *306:9 0.00029895
43 *10:15 *306:2 3.902e-05
44 *10:16 *306:3 3.902e-05
45 *10:19 *306:6 0.0001013
46 *10:20 *306:7 0.0001013

*RES
1 *10:25 *834:C 4
2 *10:25 *10:24 2.1
3 *10:24 *883:C 4
4 *10:24 *10:23 0.3
5 *10:22 *10:23 4
6 *10:22 *10:21 0.24
7 *10:28 *10:21 4
8 *10:26 *653:Y 4
9 *10:26 *10:28 0.3
10 *10:27 *10:26 0.9
11 *874:C *866:C 0.24
12 *10:27 *10:19 0.24
13 *10:20 *874:C 4
14 *10:20 *10:19 5.1
15 *10:20 *10:17 0.24
16 *10:18 *10:17 2.1
17 *10:18 *10:15 0.72
18 *10:15 *1245:A 4
19 *10:16 *10:15 3.3
20 *10:34 *850:C 4
21 *10:33 *10:16 0.24
22 *10:34 *10:35 0.3
23 *10:37 *826:D 4
24 *10:37 *10:33 0.3
25 *10:12 *10:35 4
26 *10:36 *10:37 0.24
27 *10:12 *10:11 0.4
28 *10:11 *10:36 4
29 *10:11 *10:10 0.56
30 *10:32 *842:C 4
31 *858:C *10:30 0.48
32 *10:13 *10:10 4
33 *10:32 *10:31 2.1
34 *10:31 *10:30 4
35 *10:14 *10:13 4.2
36 *10:31 *10:29 2.1
37 *10:14 *10:29 0.24
*END

*D_NET *11 0.116518

*CONN
*I *865:C I *C 181.2 214.5 *L 0.0325 *D OAI22X1
*I *881:C I *C 174 154.5 *L 0.0325 *D OAI22X1
*I *873:C I *C 46.8 175.5 *L 0.0325 *D OAI22X1
*I *849:C I *C 207.6 94.5 *L 0.0325 *D OAI22X1
*I *833:C I *C 34.8 214.5 *L 0.0325 *D OAI22X1
*I *1242:A I *C 27.6 175.5 *L 0.0333 *D INVX2
*I *841:C I *C 214.8 55.5 *L 0.0325 *D OAI22X1
*I *825:D I *C 32.4 58.5 *L 0.0332 *D OAI22X1
*I *857:C I *C 37.2 55.5 *L 0.0325 *D OAI22X1
*I *654:Y O *C 178.8 214.5 *L 0 *D BUFX2

*CAP
1 *865:C 0.00019498
2 *881:C 0.00028335
3 *873:C 0.00020796
4 *849:C 0.00028335
5 *833:C 0.00028335
6 *1242:A 0.000238
7 *841:C 0.00028335
8 *825:D 0.00028335
9 *857:C 0.00028335
10 *654:Y 0.00036499
11 *11:10 0.00992488
12 *11:11 0.00579411
13 *11:12 0.00071146
14 *11:13 0.00044175
15 *11:14 0.00641284
16 *11:15 0.00324006
17 *11:16 0.00351659
18 *11:17 0.00430443
19 *11:18 0.00460439
20 *11:19 0.00282154
21 *11:20 0.00282154
22 *11:21 0.00314237
23 *11:22 0.00314237
24 *11:23 0.00141054
25 *11:24 0.00146039
26 *11:25 0.00307061
27 *11:26 0.00324244
28 *11:27 0.00510137
29 *11:28 0.00476635
30 *11:29 0.00077986
31 *11:30 0.00082971
32 *11:31 0.00040801
33 *11:32 0.00170777
34 *11:33 0.00170777
35 *11:34 0.00184518
36 *11:35 0.00204102
37 *11:36 0.00047919
38 *11:37 0.0113753
39 *11:38 0.0113753
40 *11:39 0.00047297
41 *11:40 0.0008296
42 *11:41 0.00037797
43 *11:42 0.00060973
44 *11:43 0.00266512
45 *11:37 *536:8 0.00199298
46 *11:38 *536:6 0.00199298
47 *11:19 *486:6 0.00119579
48 *11:20 *486:7 0.00119579

*RES
1 *11:40 *841:C 4
2 *11:18 *11:40 0.72
3 *11:18 *11:17 3.9
4 *11:17 *849:C 4
5 *11:17 *11:39 0.3
6 *11:19 *11:39 4
7 *11:20 *11:19 0.96
8 *11:42 *881:C 4
9 *11:11 *11:20 4
10 *654:Y *865:C 0.225
11 *11:42 *11:10 0.48
12 *11:11 *11:10 5.7
13 *11:43 *654:Y 4
14 *11:10 *11:14 3.6
15 *11:14 *11:43 2.4
16 *11:37 *11:14 4
17 *11:38 *11:37 4.32
18 *873:C *11:41 0.24
19 *11:34 *11:38 4
20 *11:35 *11:41 4
21 *11:35 *11:34 1.5
22 *11:36 *11:35 0.3
23 *11:23 *833:C 4
24 *1242:A *11:31 0.24
25 *11:32 *11:36 4
26 *11:24 *11:23 1.2
27 *11:29 *11:31 4
28 *11:33 *11:32 0.56
29 *11:25 *11:24 0.24
30 *11:30 *11:29 0.6
31 *11:26 *11:33 4
32 *11:26 *11:25 3
33 *11:30 *11:27 0.24
34 *11:27 *11:26 0.3
35 *11:28 *11:27 4.8
36 *11:28 *11:21 0.24
37 *11:22 *11:21 3
38 *11:15 *11:22 0.24
39 *11:13 *857:C 4
40 *11:16 *825:D 4
41 *11:16 *11:15 3.3
42 *11:13 *11:12 0.3
43 *11:16 *11:12 0.48
*END

*D_NET *12 0.0729592

*CONN
*I *1218:D I *C 454.8 118.5 *L 0.0332 *D OAI22X1
*I *1219:D I *C 459.6 91.5 *L 0.0332 *D OAI22X1
*I *1225:D I *C 474 58.5 *L 0.0332 *D OAI22X1
*I *1224:D I *C 483.6 91.5 *L 0.0332 *D OAI22X1
*I *1220:D I *C 543.6 118.5 *L 0.0332 *D OAI22X1
*I *1222:D I *C 546 91.5 *L 0.0332 *D OAI22X1
*I *1221:D I *C 546 58.5 *L 0.0332 *D OAI22X1
*I *1249:A I *C 534 34.5 *L 0.0333 *D INVX2
*I *1223:D I *C 546 31.5 *L 0.0332 *D OAI22X1
*I *655:Y O *C 469.2 115.5 *L 0 *D BUFX2

*CAP
1 *1218:D 0.00028335
2 *1219:D 0.00028335
3 *1225:D 0.00028335
4 *1224:D 0.00028335
5 *1220:D 0.00028335
6 *1222:D 0.00028335
7 *1221:D 0.00028335
8 *1249:A 0.00028335
9 *1223:D 0.00028335
10 *655:Y 0.00028335
11 *12:10 0.00098141
12 *12:11 0.00225226
13 *12:12 0.00160091
14 *12:13 0.00562022
15 *12:14 0.00562022
16 *12:15 0.00077987
17 *12:16 0.00077987
18 *12:17 0.00081422
19 *12:18 0.00254431
20 *12:19 0.00201344
21 *12:20 0.00381831
22 *12:21 0.00363501
23 *12:22 0.00230451
24 *12:23 0.0024961
25 *12:24 0.00047494
26 *12:25 0.00133058
27 *12:26 0.00133058
28 *12:27 0.00050503
29 *12:28 0.00073504
30 *12:29 0.00178642
31 *12:30 0.00166313
32 *12:31 0.00045335
33 *12:32 0.00428606
34 *12:33 0.00428606
35 *12:34 0.00088239
36 *12:35 0.00104305
37 *12:36 0.00141974
38 *12:37 0.00125908
39 *12:38 0.00127003
40 *12:39 0.00127003
41 *12:40 0.00038673
42 *12:41 0.00038673
43 *12:42 0.00047668
44 *12:43 0.00047668
45 *12:44 0.00038673
46 *12:32 *28:4 0.00249122
47 *12:33 *28:5 0.00249122
48 *12:34 *28:4 0.0003986
49 *12:35 *28:5 0.0003986
50 *12:35 *28:4 0.0001993
51 *12:36 *28:5 0.0001993
52 *12:36 *28:4 0.00049824
53 *12:37 *28:5 0.00049824
54 *12:10 *28:2 7.673e-05
55 *12:11 *28:3 7.673e-05
56 *12:28 *32:2 7.673e-05
57 *12:20 *32:3 7.673e-05
58 *12:20 *32:2 0.00015347
59 *12:21 *32:3 0.00015347
60 *12:28 *30:2 2.331e-05
61 *12:20 *30:3 2.331e-05
62 *12:29 *30:2 0.00046041
63 *12:30 *30:3 0.00046041

*RES
1 *12:44 *1219:D 4
2 *12:43 *12:44 0.24
3 *12:43 *12:42 0.3
4 *12:12 *12:42 0.24
5 *12:10 *1218:D 4
6 *12:12 *12:11 1.5
7 *12:11 *12:10 0.9
8 *12:15 *655:Y 4
9 *12:37 *12:11 4
10 *12:16 *12:15 0.6
11 *12:14 *1225:D 4
12 *12:37 *12:36 0.48
13 *12:36 *12:16 4
14 *12:14 *12:13 5.1
15 *12:36 *12:35 0.16
16 *12:35 *12:13 4
17 *12:19 *1224:D 4
18 *12:35 *12:34 0.32
19 *12:19 *12:18 1.8
20 *12:18 *12:34 4
21 *12:18 *12:17 0.6
22 *12:33 *12:17 4
23 *12:33 *12:32 2
24 *12:31 *1220:D 4
25 *12:29 *12:32 4
26 *12:29 *12:31 0.3
27 *12:30 *12:29 1.8
28 *12:41 *1223:D 4
29 *12:30 *12:28 0.24
30 *12:40 *12:41 0.24
31 *12:20 *1222:D 4
32 *12:20 *12:28 0.6
33 *12:39 *12:40 4
34 *12:21 *1221:D 4
35 *12:21 *12:20 3.3
36 *12:38 *12:39 0.32
37 *12:27 *12:21 0.3
38 *12:24 *12:38 4
39 *12:25 *12:27 4
40 *12:24 *12:23 0.3
41 *12:23 *1249:A 4
42 *12:26 *12:25 0.4
43 *12:23 *12:22 2.1
44 *12:22 *12:26 4
*END

*D_NET *13 0.144006

*CONN
*I *1175:D I *C 56.4 271.5 *L 0.0332 *D OAI22X1
*I *1145:D I *C 66 211.5 *L 0.0332 *D OAI22X1
*I *1181:D I *C 66 118.5 *L 0.0332 *D OAI22X1
*I *1163:D I *C 133.2 178.5 *L 0.0332 *D OAI22X1
*I *1157:D I *C 63.6 58.5 *L 0.0332 *D OAI22X1
*I *1151:D I *C 159.6 178.5 *L 0.0332 *D OAI22X1
*I *1169:D I *C 138 31.5 *L 0.0332 *D OAI22X1
*I *1139:D I *C 154.8 238.5 *L 0.0332 *D OAI22X1
*I *1262:A I *C 246 154.5 *L 0.0333 *D INVX2
*I *656:Y O *C 66 274.5 *L 0 *D BUFX2

*CAP
1 *1175:D 0.00028335
2 *1145:D 0.00028335
3 *1181:D 0.00028335
4 *1163:D 0.00028335
5 *1157:D 0.00028335
6 *1151:D 0.00028335
7 *1169:D 0.00028335
8 *1139:D 0.00028335
9 *1262:A 0.00028335
10 *656:Y 0.00028335
11 *13:10 0.00078837
12 *13:11 0.0019185
13 *13:12 0.00103043
14 *13:13 0.00195499
15 *13:14 0.00047919
16 *13:15 0.0014326
17 *13:16 0.0014326
18 *13:17 0.00228265
19 *13:18 0.00228265
20 *13:19 0.0004491
21 *13:20 0.0004491
22 *13:21 0.00820349
23 *13:22 0.00820349
24 *13:23 0.00847806
25 *13:24 0.00279857
26 *13:25 0.00109502
27 *13:26 0.00109502
28 *13:27 0.00110989
29 *13:28 0.00132975
30 *13:29 0.0035711
31 *13:30 0.00362095
32 *13:31 0.00961143
33 *13:32 0.00800094
34 *13:33 0.0110198
35 *13:34 0.0111453
36 *13:35 0.00808496
37 *13:36 0.00617596
38 *13:37 0.00202886
39 *13:38 0.00279008
40 *13:39 0.00305979
41 *13:40 0.00257722
42 *13:41 0.00260869
43 *13:42 0.00260869
44 *13:43 0.00050503
45 *13:44 0.00050503
46 *13:45 0.00395987
47 *13:46 0.0039032
48 *13:47 0.00117265
49 *13:48 0.00117265
50 *13:49 0.00218021
51 *13:50 0.00218021
52 *13:51 0.0004903
53 *13:52 0.00038987
54 *13:32 *534:8 0.00049824
55 *13:33 *534:7 0.00049824

*RES
1 *13:17 *1139:D 4
2 *13:18 *13:17 2.1
3 *13:41 *13:18 4
4 *13:42 *13:41 0.88
5 *13:44 *1175:D 4
6 *13:38 *13:42 4
7 *13:49 *1262:A 4
8 *13:44 *13:43 0.3
9 *13:39 *13:38 2.4
10 *13:49 *13:50 1.8
11 *13:48 *13:43 4
12 *13:39 *13:37 0.48
13 *13:19 *1151:D 4
14 *13:51 *13:50 4
15 *13:52 *656:Y 4
16 *13:48 *13:47 0.24
17 *13:13 *1163:D 4
18 *13:13 *13:37 1.5
19 *13:20 *13:19 0.3
20 *13:51 *13:32 0.1
21 *13:45 *13:52 0.24
22 *13:45 *13:47 4
23 *13:14 *13:13 0.3
24 *13:33 *13:20 4
25 *13:33 *13:32 2.88
26 *13:46 *13:45 3.9
27 *13:34 *13:14 4
28 *13:34 *13:33 0.88
29 *13:46 *13:40 0.24
30 *13:35 *13:34 2.24
31 *13:36 *1145:D 4
32 *13:36 *13:40 2.4
33 *13:31 *13:35 4
34 *13:31 *13:36 3.6
35 *13:23 *1181:D 4
36 *13:23 *13:31 5.7
37 *13:24 *13:23 2.4
38 *13:25 *13:24 4
39 *13:26 *13:25 0.32
40 *13:29 *13:26 4
41 *13:30 *13:29 3.3
42 *13:30 *13:27 0.24
43 *13:28 *13:27 0.9
44 *13:10 *1157:D 4
45 *13:28 *13:11 0.48
46 *13:11 *13:10 0.6
47 *13:12 *13:11 0.9
48 *13:22 *13:12 4
49 *13:22 *13:21 2.48
50 *13:15 *13:21 4
51 *13:16 *1169:D 4
52 *13:16 *13:15 1.2
*END

*D_NET *14 0.127424

*CONN
*I *1175:B I *C 51.6 271.5 *L 0.033 *D OAI22X1
*I *1145:B I *C 61.2 211.5 *L 0.033 *D OAI22X1
*I *1181:B I *C 61.2 118.5 *L 0.033 *D OAI22X1
*I *1163:B I *C 128.4 178.5 *L 0.033 *D OAI22X1
*I *1157:B I *C 68.4 58.5 *L 0.033 *D OAI22X1
*I *1139:B I *C 150 238.5 *L 0.033 *D OAI22X1
*I *1169:B I *C 133.2 31.5 *L 0.033 *D OAI22X1
*I *1151:B I *C 154.8 178.5 *L 0.033 *D OAI22X1
*I *657:Y O *C 63.6 295.5 *L 0 *D BUFX2

*CAP
1 *1175:B 0.00028335
2 *1145:B 0.00087894
3 *1181:B 0.00090709
4 *1163:B 0.00019498
5 *1157:B 0.00020796
6 *1139:B 0.00028335
7 *1169:B 0.00028335
8 *1151:B 0.00028335
9 *657:Y 0.00028335
10 *14:9 0.00341659
11 *14:10 0.00341659
12 *14:11 0.00292261
13 *14:12 0.00292261
14 *14:13 0.00047297
15 *14:14 0.00047297
16 *14:15 0.00084007
17 *14:16 0.00084007
18 *14:17 0.00676356
19 *14:18 0.00868645
20 *14:19 0.00231564
21 *14:20 0.0118688
22 *14:21 0.00607988
23 *14:22 0.00117283
24 *14:23 0.00884144
25 *14:24 0.00047919
26 *14:25 0.00047919
27 *14:26 0.00221941
28 *14:27 0.0031145
29 *14:28 0.0107101
30 *14:29 0.00981498
31 *14:30 0.00599534
32 *14:31 0.00837796
33 *14:32 0.00167462
34 *14:33 0.00167462
35 *14:34 0.00333093
36 *14:35 0.00333093
37 *14:36 0.00104895
38 *14:37 0.00066986
39 *14:38 0.00154377
40 *14:39 0.00154377
41 *14:40 0.00037797
42 *14:41 0.00043575
43 *14:42 0.00036499
44 *14:43 0.00149459
45 *14:44 0.00149459
46 *14:44 *516:4 0.00046041
47 *14:43 *516:5 0.00046041
48 *14:37 *546:8 7.673e-05
49 *14:30 *546:7 7.673e-05
50 *14:30 *546:8 0.00076735
51 *14:31 *546:7 0.00076735

*RES
1 *14:11 *1139:B 4
2 *14:12 *14:11 2.7
3 *14:32 *14:12 4
4 *14:44 *657:Y 4
5 *14:33 *14:32 0.48
6 *14:14 *1151:B 4
7 *14:43 *14:44 1.8
8 *14:34 *14:33 4
9 *14:14 *14:13 0.3
10 *14:42 *1163:B 0.225
11 *14:38 *14:43 4
12 *14:35 *14:34 3
13 *14:26 *14:13 4
14 *14:25 *14:42 4
15 *14:39 *14:38 0.4
16 *14:27 *14:35 4
17 *14:27 *14:26 0.64
18 *14:25 *14:24 0.3
19 *14:37 *14:39 4
20 *14:28 *14:27 0.32
21 *14:28 *14:24 4
22 *14:36 *1145:B 0.945
23 *14:30 *1175:B 4
24 *14:30 *14:37 0.6
25 *14:22 *1181:B 0.945
26 *14:29 *14:28 2.48
27 *14:31 *14:36 4
28 *14:31 *14:30 6
29 *14:22 *14:41 0.3
30 *14:23 *14:29 4
31 *14:23 *14:31 3
32 *14:20 *14:41 4
33 *14:20 *14:23 6
34 *1157:B *14:40 0.24
35 *14:21 *14:20 5.7
36 *14:16 *14:40 4
37 *14:19 *14:21 4
38 *14:16 *14:15 0.6
39 *14:19 *14:18 0.64
40 *14:18 *14:15 4
41 *14:18 *14:17 2.08
42 *14:9 *14:17 4
43 *14:10 *1169:B 4
44 *14:10 *14:9 3.3
*END

*D_NET *15 0.139425

*CONN
*I *1089:D I *C 154.8 271.5 *L 0.0332 *D OAI22X1
*I *1095:D I *C 78 211.5 *L 0.0332 *D OAI22X1
*I *1125:D I *C 75.6 271.5 *L 0.0332 *D OAI22X1
*I *1101:D I *C 162 211.5 *L 0.0332 *D OAI22X1
*I *1113:D I *C 133.2 151.5 *L 0.0332 *D OAI22X1
*I *1131:D I *C 78 118.5 *L 0.0332 *D OAI22X1
*I *1107:D I *C 78 91.5 *L 0.0332 *D OAI22X1
*I *1259:A I *C 246 175.5 *L 0.0333 *D INVX2
*I *1119:D I *C 133.2 91.5 *L 0.0332 *D OAI22X1
*I *658:Y O *C 85.2 274.5 *L 0 *D BUFX2

*CAP
1 *1089:D 0.00028335
2 *1095:D 0.00028335
3 *1125:D 0.00028335
4 *1101:D 0.00028335
5 *1113:D 0.00028335
6 *1131:D 0.00028335
7 *1107:D 0.00028335
8 *1259:A 0.00020796
9 *1119:D 0.00028335
10 *658:Y 0.00028335
11 *15:10 0.0004491
12 *15:11 0.00063325
13 *15:12 0.00205097
14 *15:13 0.00785503
15 *15:14 0.00608741
16 *15:15 0.00358843
17 *15:16 0.00469089
18 *15:17 0.00292256
19 *15:18 0.00292256
20 *15:19 0.00138581
21 *15:20 0.00248317
22 *15:21 0.00248317
23 *15:22 0.00329315
24 *15:23 0.00281396
25 *15:24 0.00352034
26 *15:25 0.00508216
27 *15:26 0.00184517
28 *15:27 0.00081239
29 *15:28 0.0035954
30 *15:29 0.00816093
31 *15:30 0.00494858
32 *15:31 0.00156224
33 *15:32 0.00742585
34 *15:33 0.00625636
35 *15:34 0.0130379
36 *15:35 0.0130379
37 *15:36 0.00222921
38 *15:37 0.00222921
39 *15:38 0.00625751
40 *15:39 0.00106564
41 *15:40 0.00557492
42 *15:41 0.00117265
43 *15:42 0.00117265
44 *15:43 0.00117265
45 *15:44 0.00117265
46 *15:45 0.00051735
47 *15:46 0.00037797
48 *15:47 0.00038987
49 *15:48 0.00038987

*RES
1 *15:48 *658:Y 4
2 *15:47 *15:48 0.24
3 *15:17 *1089:D 4
4 *15:43 *15:47 4
5 *15:18 *15:17 2.7
6 *15:44 *15:43 0.24
7 *15:42 *15:18 4
8 *15:10 *15:44 4
9 *15:42 *15:41 0.24
10 *15:11 *1125:D 4
11 *15:11 *15:10 0.3
12 *15:46 *1259:A 0.24
13 *15:15 *15:41 4
14 *15:45 *15:11 0.3
15 *15:20 *15:46 4
16 *15:16 *1101:D 4
17 *15:16 *15:15 3.3
18 *15:23 *1107:D 4
19 *15:45 *15:40 0.24
20 *15:21 *15:20 2.1
21 *15:19 *15:16 1.2
22 *15:22 *1131:D 4
23 *15:23 *15:22 2.7
24 *15:38 *1095:D 4
25 *15:38 *15:40 5.7
26 *15:34 *15:21 4
27 *15:36 *15:19 4
28 *15:22 *15:27 0.6
29 *15:39 *15:38 0.9
30 *15:35 *15:34 3.28
31 *15:37 *15:36 0.56
32 *15:27 *15:30 0.24
33 *15:39 *15:28 0.24
34 *15:26 *15:35 4
35 *15:24 *15:37 4
36 *15:30 *15:29 4.5
37 *15:29 *15:28 3.3
38 *15:26 *15:25 1.5
39 *15:25 *15:24 3
40 *15:33 *15:29 4
41 *15:31 *15:25 4
42 *15:33 *15:32 1.76
43 *15:32 *15:31 0.4
44 *15:12 *15:32 4
45 *15:13 *1113:D 4
46 *15:13 *15:12 1.8
47 *15:14 *1119:D 4
48 *15:14 *15:13 6
*END

*D_NET *16 0.111935

*CONN
*I *1125:B I *C 70.8 271.5 *L 0.033 *D OAI22X1
*I *1089:B I *C 150 271.5 *L 0.033 *D OAI22X1
*I *1095:B I *C 73.2 211.5 *L 0.033 *D OAI22X1
*I *1101:B I *C 157.2 211.5 *L 0.033 *D OAI22X1
*I *1131:B I *C 73.2 118.5 *L 0.033 *D OAI22X1
*I *1107:B I *C 73.2 91.5 *L 0.033 *D OAI22X1
*I *1113:B I *C 128.4 151.5 *L 0.033 *D OAI22X1
*I *1119:B I *C 128.4 91.5 *L 0.033 *D OAI22X1
*I *659:Y O *C 92.4 274.5 *L 0 *D BUFX2

*CAP
1 *1125:B 0.00028335
2 *1089:B 0.00028335
3 *1095:B 0.00028335
4 *1101:B 0.00028335
5 *1131:B 0.00020796
6 *1107:B 0.00028335
7 *1113:B 0.00040294
8 *1119:B 0.00040294
9 *659:Y 0.00028335
10 *16:9 0.00464972
11 *16:10 0.00464972
12 *16:11 0.00625904
13 *16:12 0.00625904
14 *16:13 0.00050503
15 *16:14 0.00050503
16 *16:15 0.0039578
17 *16:16 0.0039578
18 *16:17 0.00047919
19 *16:18 0.00047919
20 *16:19 0.00132152
21 *16:20 0.00103192
22 *16:21 0.00228027
23 *16:22 0.00315366
24 *16:23 0.00126614
25 *16:24 0.0016914
26 *16:25 0.0016914
27 *16:26 0.00317442
28 *16:27 0.00143261
29 *16:28 0.0108937
30 *16:29 0.00551202
31 *16:30 0.00196667
32 *16:31 0.00174681
33 *16:32 0.00173754
34 *16:33 0.00173754
35 *16:34 0.00604123
36 *16:35 0.00106878
37 *16:36 0.00106878
38 *16:37 0.00207501
39 *16:38 0.00047494
40 *16:39 0.00047494
41 *16:40 0.0020734
42 *16:41 0.00822068
43 *16:42 0.00860924
44 *16:43 0.00246196
45 *16:44 0.00037797
46 *16:45 0.00057295
47 *16:46 0.00038987
48 *16:47 0.00038987
49 *16:48 0.00038987
50 *16:21 *489:7 0.00059789
51 *16:22 *489:6 0.00059789
52 *16:22 *489:7 0.00049824
53 *16:23 *489:6 0.00049824

*RES
1 *16:33 *1101:B 4
2 *16:33 *16:32 1.5
3 *16:36 *16:32 4
4 *16:36 *16:35 0.24
5 *16:10 *16:35 4
6 *16:47 *1089:B 4
7 *16:10 *16:9 4.5
8 *16:38 *659:Y 4
9 *16:46 *16:47 0.24
10 *16:40 *16:9 4
11 *16:39 *16:38 0.3
12 *16:41 *16:46 4
13 *16:41 *16:40 0.56
14 *16:42 *16:39 4
15 *16:42 *16:41 1.84
16 *16:48 *1125:B 4
17 *16:43 *16:42 0.64
18 *16:48 *16:34 0.24
19 *16:34 *16:43 4
20 *16:28 *1095:B 4
21 *16:28 *16:34 6
22 *16:29 *16:28 4.8
23 *16:30 *16:29 0.48
24 *16:44 *1131:B 0.24
25 *16:31 *16:30 1.5
26 *16:27 *16:44 4
27 *16:31 *16:37 0.24
28 *16:27 *16:26 1.2
29 *16:26 *16:37 1.8
30 *16:25 *16:26 4
31 *16:18 *1107:B 4
32 *16:25 *16:24 0.56
33 *16:18 *16:17 0.3
34 *16:15 *16:24 4
35 *16:23 *16:17 4
36 *16:16 *16:15 3.6
37 *16:23 *16:22 0.48
38 *16:22 *16:16 4
39 *16:22 *16:21 0.88
40 *16:13 *16:21 4
41 *16:14 *16:13 0.3
42 *16:20 *16:14 4
43 *16:45 *1113:B 0.465
44 *16:20 *16:19 0.96
45 *16:19 *1119:B 0.465
46 *16:11 *16:45 4
47 *16:12 *16:19 4
48 *16:12 *16:11 6
*END

*D_NET *17 0.100865

*CONN
*I *1027:B I *C 440.4 208.5 *L 0.0216 *D NAND2X1
*I *1026:A I *C 457.2 214.5 *L 0.0323 *D OAI21X1
*I *1004:B I *C 505.2 208.5 *L 0.0216 *D NAND2X1
*I *1003:A I *C 514.8 214.5 *L 0.0323 *D OAI21X1
*I *1037:B I *C 476.4 121.5 *L 0.0216 *D NAND2X1
*I *1036:A I *C 469.2 154.5 *L 0.0323 *D OAI21X1
*I *1057:A I *C 433.2 154.5 *L 0.0323 *D OAI21X1
*I *1017:A I *C 546 214.5 *L 0.0323 *D OAI21X1
*I *1058:B I *C 423.6 148.5 *L 0.0216 *D NAND2X1
*I *1018:B I *C 541.2 181.5 *L 0.0216 *D NAND2X1
*I *1042:B I *C 553.2 181.5 *L 0.0216 *D NAND2X1
*I *996:A I *C 414 154.5 *L 0.0323 *D OAI21X1
*I *1041:A I *C 543.6 175.5 *L 0.0323 *D OAI21X1
*I *997:B I *C 404.4 148.5 *L 0.0216 *D NAND2X1
*I *1010:A I *C 550.8 154.5 *L 0.0323 *D OAI21X1
*I *1011:B I *C 541.2 148.5 *L 0.0216 *D NAND2X1
*I *660:Y O *C 447.6 214.5 *L 0 *D BUFX2

*CAP
1 *1027:B 0.00028335
2 *1026:A 0.00028335
3 *1004:B 0.00028335
4 *1003:A 0.00028335
5 *1037:B 0.00028335
6 *1036:A 0.00028335
7 *1057:A 0.00028335
8 *1017:A 0.00028335
9 *1058:B 0.00028335
10 *1018:B 0.00028335
11 *1042:B 0.00028335
12 *996:A 0.00028335
13 *1041:A 0.00028335
14 *997:B 0.00028335
15 *1010:A 0.00019498
16 *1011:B 0.00028335
17 *660:Y 0.00028335
18 *17:17 0.00047297
19 *17:18 0.00047297
20 *17:19 0.00111718
21 *17:20 0.00327062
22 *17:21 0.0024835
23 *17:22 0.00113379
24 *17:23 0.00108708
25 *17:24 0.00305352
26 *17:25 0.00279008
27 *17:26 0.00112451
28 *17:27 0.00134124
29 *17:28 0.00150607
30 *17:29 0.00136316
31 *17:30 0.00189126
32 *17:31 0.00247527
33 *17:32 0.00121455
34 *17:33 0.0013256
35 *17:34 0.00338941
36 *17:35 0.00045335
37 *17:36 0.00045335
38 *17:37 0.00044485
39 *17:38 0.00044485
40 *17:39 0.0004491
41 *17:40 0.0004491
42 *17:41 0.0004491
43 *17:42 0.00123323
44 *17:43 0.00106748
45 *17:44 0.00095869
46 *17:45 0.00106207
47 *17:46 0.00279089
48 *17:47 0.00279089
49 *17:48 0.00158986
50 *17:49 0.00158986
51 *17:50 0.00172329
52 *17:51 0.00105133
53 *17:52 0.00153693
54 *17:53 0.00194423
55 *17:54 0.00189752
56 *17:55 0.00171167
57 *17:56 0.00065073
58 *17:57 0.00065073
59 *17:58 0.00318743
60 *17:59 0.00387067
61 *17:60 0.00048762
62 *17:61 0.00066456
63 *17:62 0.00047494
64 *17:63 0.00148873
65 *17:64 0.00226863
66 *17:65 0.00117265
67 *17:66 0.0057669
68 *17:67 0.00508366
69 *17:68 0.00140677
70 *17:69 0.00191181
71 *17:70 0.00095839
72 *17:71 0.00045335
73 *17:72 0.00106471
74 *17:73 0.00038673
75 *17:74 0.00036499
76 *17:75 0.00047297
77 *17:76 0.0004675
78 *17:77 0.0004675
79 *17:78 0.00047297
80 *17:46 *575:17 0.00129543
81 *17:47 *575:6 0.00129543
82 *17:48 *575:17 0.00079719
83 *17:49 *575:6 0.00079719
84 *17:50 *575:17 1.784e-05
85 *17:51 *575:6 1.784e-05
86 *17:26 *575:15 1.126e-05
87 *17:27 *575:16 1.126e-05
88 *17:44 *575:15 4.662e-05
89 *17:45 *575:16 4.662e-05

*RES
1 *17:54 *1011:B 4
2 *1010:A *17:74 0.225
3 *17:54 *17:53 1.8
4 *17:52 *17:74 4
5 *17:33 *1042:B 4
6 *17:53 *17:60 0.24
7 *17:52 *17:34 1.5
8 *17:34 *17:33 1.2
9 *17:60 *17:55 0.3
10 *17:55 *17:34 0.96
11 *17:32 *1041:A 4
12 *17:55 *17:32 0.6
13 *17:73 *1018:B 4
14 *17:32 *17:31 0.6
15 *17:73 *17:31 0.24
16 *17:31 *17:30 1.8
17 *17:30 *17:29 0.24
18 *17:75 *1017:A 4
19 *17:29 *17:28 1.2
20 *17:28 *17:75 0.3
21 *17:77 *1003:A 4
22 *17:38 *1004:B 4
23 *17:58 *17:28 4
24 *17:76 *17:77 0.3
25 *17:38 *17:37 0.3
26 *17:59 *17:58 1.04
27 *17:59 *17:76 4
28 *17:66 *17:37 4
29 *17:66 *17:59 0.32
30 *17:67 *17:66 1.6
31 *17:62 *17:67 4
32 *17:61 *1026:A 4
33 *17:62 *17:61 0.3
34 *17:18 *660:Y 4
35 *17:61 *17:78 0.3
36 *17:18 *17:17 0.3
37 *17:63 *17:78 4
38 *17:35 *997:B 4
39 *17:39 *1058:B 4
40 *17:64 *17:17 4
41 *17:64 *17:63 0.32
42 *17:36 *17:35 0.3
43 *17:40 *17:39 0.3
44 *17:65 *17:64 0.24
45 *17:51 *17:36 4
46 *17:72 *17:40 4
47 *17:19 *17:65 4
48 *17:51 *17:50 0.32
49 *17:50 *17:72 0.32
50 *17:20 *1027:B 4
51 *17:20 *17:19 0.9
52 *17:43 *17:50 4
53 *17:21 *17:20 2.4
54 *17:42 *996:A 4
55 *17:43 *17:42 0.9
56 *17:22 *17:21 0.24
57 *17:42 *17:41 0.3
58 *17:23 *17:22 0.9
59 *17:49 *17:41 4
60 *17:56 *17:23 4
61 *17:71 *1057:A 4
62 *17:49 *17:48 0.64
63 *17:57 *17:56 0.16
64 *17:71 *17:70 0.3
65 *17:70 *17:48 4
66 *17:68 *17:57 4
67 *17:70 *17:69 0.6
68 *17:69 *17:68 1.2
69 *17:47 *17:69 4
70 *17:47 *17:46 1.2
71 *17:44 *17:46 4
72 *17:45 *1036:A 4
73 *17:45 *17:44 0.9
74 *17:45 *17:26 0.24
75 *17:27 *17:26 0.9
76 *17:27 *17:24 0.48
77 *17:25 *1037:B 4
78 *17:25 *17:24 2.4
*END

*D_NET *18 0.068632

*CONN
*I *935:B I *C 334.8 331.5 *L 0.0277 *D NOR2X1
*I *926:B I *C 430.8 331.5 *L 0.033 *D OAI22X1
*I *931:B I *C 447.6 331.5 *L 0.033 *D OAI22X1
*I *918:B I *C 500.4 331.5 *L 0.033 *D OAI22X1
*I *922:B I *C 464.4 298.5 *L 0.033 *D OAI22X1
*I *741:A I *C 471.6 274.5 *L 0.0333 *D INVX2
*I *914:B I *C 493.2 298.5 *L 0.033 *D OAI22X1
*I *910:B I *C 493.2 271.5 *L 0.033 *D OAI22X1
*I *661:Y O *C 342 334.5 *L 0 *D BUFX2

*CAP
1 *935:B 0.00028335
2 *926:B 0.00145578
3 *931:B 0.00028335
4 *918:B 0.00028335
5 *922:B 0.00067098
6 *741:A 0.00028335
7 *914:B 0.00028335
8 *910:B 0.00028335
9 *661:Y 0.00028335
10 *18:9 0.0077609
11 *18:10 0.00669434
12 *18:11 0.00066255
13 *18:12 0.00050503
14 *18:13 0.00050503
15 *18:14 0.00050503
16 *18:15 0.0022123
17 *18:16 0.00199062
18 *18:17 0.00167918
19 *18:18 0.00324895
20 *18:19 0.00229404
21 *18:20 0.00084099
22 *18:21 0.0027689
23 *18:22 0.00108904
24 *18:23 0.002566
25 *18:24 0.00261028
26 *18:25 0.00115722
27 *18:26 0.00137638
28 *18:27 0.00228332
29 *18:28 0.00072427
30 *18:29 0.00224444
31 *18:30 0.00224444
32 *18:31 0.00261913
33 *18:32 0.00261913
34 *18:33 0.00326167
35 *18:34 0.00465414
36 *18:35 0.00162579
37 *18:36 0.00050503
38 *18:37 0.00050503
39 *18:38 0.0003843
40 *18:39 0.0003843

*RES
1 *18:23 *918:B 4
2 *18:24 *18:23 2.4
3 *18:25 *18:24 0.24
4 *18:26 *18:25 0.9
5 *18:22 *910:B 4
6 *18:27 *914:B 4
7 *18:27 *18:26 0.48
8 *18:22 *18:21 0.9
9 *18:21 *18:27 1.8
10 *18:29 *18:21 4
11 *18:28 *741:A 4
12 *18:30 *18:29 0.72
13 *922:B *18:20 0.705
14 *18:28 *18:19 0.6
15 *18:19 *18:30 4
16 *18:18 *18:20 4
17 *18:19 *18:18 1.8
18 *18:18 *18:17 1.5
19 *18:31 *18:17 4
20 *18:32 *18:31 0.8
21 *18:16 *18:32 4
22 *18:35 *926:B 1.68
23 *18:15 *931:B 4
24 *18:16 *18:15 1.8
25 *18:36 *18:35 4
26 *18:15 *18:14 0.3
27 *18:38 *661:Y 4
28 *18:36 *18:37 0.3
29 *18:33 *18:14 4
30 *18:39 *18:38 0.24
31 *18:34 *18:37 4
32 *18:34 *18:33 1.12
33 *18:10 *18:39 4
34 *18:9 *18:34 0.466667
35 *18:10 *18:9 2.01333
36 *18:11 *18:10 0.16
37 *18:12 *18:11 4
38 *18:13 *935:B 4
39 *18:13 *18:12 0.3
*END

*D_NET *19 0.147245

*CONN
*I *897:B I *C 207.6 334.5 *L 0.0325 *D AOI21X1
*I *889:A I *C 200.4 331.5 *L 0.0323 *D AOI21X1
*I *840:B I *C 406.8 118.5 *L 0.033 *D OAI22X1
*I *895:B I *C 406.8 91.5 *L 0.033 *D OAI22X1
*I *880:B I *C 402 58.5 *L 0.033 *D OAI22X1
*I *872:B I *C 394.8 91.5 *L 0.033 *D OAI22X1
*I *832:B I *C 433.2 58.5 *L 0.033 *D OAI22X1
*I *864:B I *C 445.2 58.5 *L 0.033 *D OAI22X1
*I *1258:A I *C 445.2 34.5 *L 0.0333 *D INVX2
*I *848:B I *C 435.6 31.5 *L 0.033 *D OAI22X1
*I *856:B I *C 406.8 31.5 *L 0.033 *D OAI22X1
*I *662:Y O *C 217.2 334.5 *L 0 *D BUFX2

*CAP
1 *897:B 0.00028335
2 *889:A 0.00028335
3 *840:B 0.00019498
4 *895:B 0.00019498
5 *880:B 0.0001603
6 *872:B 0.00028335
7 *832:B 0.00028335
8 *864:B 0.00019498
9 *1258:A 0.00028335
10 *848:B 0.00020796
11 *856:B 0.00085959
12 *662:Y 0.0004253
13 *19:12 0.0106851
14 *19:13 0.0105455
15 *19:14 0.00074349
16 *19:15 0.00074349
17 *19:16 0.00047494
18 *19:17 0.00047494
19 *19:18 0.00140675
20 *19:19 0.00140675
21 *19:20 0.00271462
22 *19:21 0.00245389
23 *19:22 0.00102026
24 *19:23 0.00084007
25 *19:24 0.00084007
26 *19:25 0.00059531
27 *19:26 0.00128099
28 *19:27 0.00232147
29 *19:28 0.0048563
30 *19:29 0.00286489
31 *19:30 0.00315522
32 *19:31 0.00425657
33 *19:32 0.00143141
34 *19:33 0.010255
35 *19:34 0.010255
36 *19:35 0.00275933
37 *19:36 0.00275933
38 *19:37 0.00636465
39 *19:38 0.00631794
40 *19:39 0.00211383
41 *19:40 0.00216054
42 *19:41 0.00255641
43 *19:42 0.00237226
44 *19:43 0.00190058
45 *19:44 0.00180596
46 *19:45 0.00127003
47 *19:46 0.00127003
48 *19:47 0.00078586
49 *19:48 0.00073915
50 *19:49 0.00043575
51 *19:50 0.00071634
52 *19:51 0.00041594
53 *19:52 0.00044713
54 *19:53 0.00044713
55 *19:54 0.00044166
56 *19:55 0.00044166
57 *19:56 0.00036499
58 *19:57 0.00063293
59 *19:58 0.00058595
60 *19:59 0.00041265
61 *19:60 0.00081888
62 *19:61 0.00041265
63 *19:62 0.00040294
64 *19:63 0.00036499
65 *19:64 0.0004675
66 *19:65 0.00158243
67 *19:66 0.00173156
68 *19:67 0.00047919
69 *19:68 0.0013432
70 *19:69 0.0013432
71 *19:70 0.0021405
72 *19:71 0.0021405
73 *19:72 0.00170437
74 *19:73 0.00170437
75 *19:74 0.00049535
76 *19:75 0.00433149
77 *19:76 0.00405783
78 *19:77 0.00092104
79 *19:78 0.00100864

*RES
1 *19:48 *1258:A 4
2 *19:48 *19:47 0.6
3 *19:63 *864:B 0.225
4 *19:65 *19:47 0.24
5 *19:67 *19:63 4
6 *19:16 *889:A 4
7 *19:65 *19:66 1.5
8 *19:66 *19:67 0.3
9 *19:17 *19:16 0.3
10 *19:14 *897:B 4
11 *662:Y *19:25 0.48
12 *19:69 *19:66 4
13 *19:22 *19:17 4
14 *19:15 *19:14 0.6
15 *19:23 *19:25 4
16 *19:64 *832:B 4
17 *19:68 *19:69 0.32
18 *19:22 *19:21 0.24
19 *19:21 *19:15 4
20 *19:24 *19:23 0.6
21 *19:41 *19:64 0.3
22 *19:41 *19:68 4
23 *19:21 *19:20 0.48
24 *19:20 *19:24 4
25 *19:42 *19:41 2.4
26 *19:20 *19:26 0.32
27 *19:43 *848:B 0.24
28 *19:43 *19:42 4
29 *19:18 *19:26 4
30 *19:44 *19:43 1.68
31 *19:19 *19:18 1.2
32 *19:55 *19:44 4
33 *19:74 *19:19 4
34 *19:55 *19:54 0.3
35 *19:13 *19:74 0.1
36 *19:45 *19:54 4
37 *19:13 *19:12 3.76
38 *19:46 *19:45 0.32
39 *19:12 *19:75 0.15
40 *19:53 *19:46 4
41 *19:75 *19:76 1.2
42 *19:52 *19:53 0.3
43 *19:76 *19:77 0.05
44 *856:B *19:52 4
45 *19:77 *19:78 0.24
46 *19:33 *19:78 4
47 *19:60 *856:B 0.665
48 *19:59 *19:60 0.28
49 *19:34 *19:33 9.3
50 *19:29 *19:59 4
51 *19:62 *880:B 0.185
52 *19:61 *19:62 0.28
53 *19:72 *19:34 4
54 *19:29 *19:28 2.7
55 *19:28 *19:61 4
56 *19:72 *19:73 0.4
57 *19:28 *19:27 2.1
58 *19:39 *19:73 4
59 *19:32 *19:27 0.24
60 *19:56 *895:B 0.225
61 *19:40 *19:39 2.1
62 *19:32 *19:31 1.2
63 *19:31 *872:B 4
64 *19:36 *19:56 4
65 *19:40 *19:71 0.24
66 *19:31 *19:30 2.7
67 *19:36 *19:35 2.7
68 *19:70 *19:71 2.1
69 *19:58 *19:30 4
70 *19:57 *19:35 4
71 *19:57 *840:B 0.225
72 *19:37 *19:70 0.24
73 *19:58 *19:50 0.48
74 *19:51 *19:57 0.44
75 *19:50 *19:51 0.04
76 *19:38 *19:37 6.3
77 *19:50 *19:49 0.3
78 *19:49 *19:38 4
*END

*D_NET *20 0.0126213

*CONN
*P *20 I *C 0 400.5 *L 0
*I *1236:A I *C 25.2 355.5 *L 0.0333 *D INVX2

*CAP
1 *20 6.682e-05
2 *1236:A 0.0020667
3 *20:2 0.00407393
4 *20:3 0.00223671
5 *20:4 0.00417712

*RES
1 *20:3 *1236:A 2.385
2 *20:4 *20:3 4
3 *20:4 *20:2 4.5
4 *20 *20:2 0.075
*END

*D_NET *21 0.0109158

*CONN
*P *21 I *C 0 403.5 *L 0
*I *1235:A I *C 42 415.5 *L 0.0333 *D INVX2

*CAP
1 *21 6.682e-05
2 *1235:A 0.00114697
3 *21:2 0.00284693
4 *21:3 0.00284693
5 *21:4 0.00131698
6 *21:5 0.00023683
7 *21:6 0.00122719
8 *21:7 0.00122719

*RES
1 *21 *21:5 0.075
2 *21:3 *21:5 4
3 *21:3 *21:2 0.96
4 *21:6 *21:2 4
5 *21:6 *21:7 1.2
6 *21:4 *21:7 4
7 *21:4 *1235:A 1.185
*END

*D_NET *22 0.0352544

*CONN
*P *22 I *C 0 406.5 *L 0
*I *1240:A I *C 92.4 394.5 *L 0.0333 *D INVX2
*I *1076:C I *C 111.6 358.5 *L 0.033 *D AOI22X1

*CAP
1 *22 0.00028063
2 *1240:A 0.00041594
3 *1076:C 0.00041594
4 *22:3 0.00121065
5 *22:4 0.00110003
6 *22:5 0.00376809
7 *22:6 0.00376809
8 *22:7 0.00760928
9 *22:8 0.00684338
10 *22:9 0.00115865
11 *22:10 0.00058595
12 *22:11 0.0004675
13 *22:12 0.0004675
14 *22:13 0.00058595
15 *22:9 *579:6 0.00079719
16 *22:7 *579:7 0.00079719
17 *22:7 *579:6 0.00089684
18 *22:8 *579:7 0.00089684
19 *22:9 *584:4 0.00079719
20 *22:7 *584:5 0.00079719
21 *22:7 *584:4 0.00079719
22 *22:8 *584:5 0.00079719

*RES
1 *22:13 *1076:C 0.48
2 *22 *22:3 0.315
3 *22:6 *22:13 4
4 *22:4 *22:3 0.9
5 *22:6 *22:5 3.9
6 *22:8 *22:4 4
7 *22:9 *22:5 4
8 *22:8 *22:7 2.8
9 *22:7 *22:9 0.64
10 *22:12 *22:7 4
11 *22:11 *22:12 0.3
12 *22:10 *22:11 4
13 *22:10 *1240:A 0.48
*END

*D_NET *23 0.0307155

*CONN
*P *23 I *C 0 409.5 *L 0
*I *1239:A I *C 99.6 394.5 *L 0.0333 *D INVX2
*I *1075:C I *C 111.6 391.5 *L 0.033 *D AOI22X1

*CAP
1 *23 6.682e-05
2 *1239:A 0.00028335
3 *1075:C 0.000238
4 *23:3 0.00161487
5 *23:4 0.00161487
6 *23:5 0.00040801
7 *23:6 0.00662872
8 *23:7 0.00658223
9 *23:8 0.00138386
10 *23:9 0.00138386
11 *23:10 0.00023683
12 *23:11 0.00136618
13 *23:12 0.0020276
14 *23:13 0.00110066
15 *23:6 *24:2 0.00288982
16 *23:7 *24:3 0.00288982

*RES
1 *23 *23:10 0.075
2 *23:5 *1075:C 0.24
3 *23:7 *23:10 4
4 *23:4 *23:5 4
5 *23:7 *23:6 2.88
6 *23:4 *23:3 1.5
7 *23:11 *23:6 0.1
8 *23:13 *23:3 4
9 *23:11 *23:12 0.4
10 *23:12 *23:13 0.32
11 *23:8 *23:12 4
12 *23:9 *23:8 1.2
13 *1239:A *23:9 4
*END

*D_NET *24 0.0184149

*CONN
*P *24 I *C 0 412.5 *L 0
*I *1234:A I *C 70.8 415.5 *L 0.0333 *D INVX2

*CAP
1 *24 6.682e-05
2 *1234:A 0.00028335
3 *24:2 0.00448635
4 *24:3 0.00448635
5 *24:4 0.00023683
6 *24:5 0.00041835
7 *24:6 0.00041835
8 *24:2 *579:10 0.00109614
9 *24:3 *579:11 0.00109614
10 *24:6 *579:12 2.331e-05
11 *24:5 *579:13 2.331e-05
12 *24:2 *23:6 0.00288982
13 *24:3 *23:7 0.00288982

*RES
1 *24 *24:4 0.075
2 *24:3 *24:4 4
3 *24:3 *24:2 2.32
4 *24:5 *24:2 4
5 *24:5 *24:6 0.3
6 *1234:A *24:6 4
*END

*D_NET *25 0.00426704

*CONN
*P *25 I *C 0 415.5 *L 0
*I *1233:A I *C 25.2 415.5 *L 0.0333 *D INVX2

*CAP
1 *25 6.682e-05
2 *1233:A 0.0020667
3 *25:2 0.0020667
4 *25:3 6.682e-05

*RES
1 *25 *25:3 0.075
2 *25:2 *25:3 4
3 *25:2 *1233:A 2.385
*END

*D_NET *26 0.00903844

*CONN
*P *26 I *C 0 418.5 *L 0
*I *1232:A I *C 25.2 394.5 *L 0.0333 *D INVX2

*CAP
1 *26 0.00049445
2 *1232:A 0.00165076
3 *26:2 0.00269845
4 *26:3 0.00237401
5 *26:4 0.00182077

*RES
1 *26 *26:2 0.555
2 *26:3 *26:2 2.4
3 *26:4 *26:3 4
4 *26:4 *1232:A 1.905
*END

*D_NET *27 0.0334695

*CONN
*P *27 I *C 0 421.5 *L 0
*I *1238:A I *C 58.8 394.5 *L 0.0333 *D INVX2
*I *1078:A I *C 46.8 331.5 *L 0.0323 *D AOI22X1

*CAP
1 *27 6.682e-05
2 *1238:A 0.00041594
3 *1078:A 0.000238
4 *27:3 0.00081422
5 *27:4 0.00081422
6 *27:5 0.00040801
7 *27:6 0.00296215
8 *27:7 0.00863158
9 *27:8 0.00595278
10 *27:9 0.00106917
11 *27:10 0.00106917
12 *27:11 0.00484237
13 *27:12 0.00484237
14 *27:13 0.00058595
15 *27:14 0.00032678
16 *27:15 0.00042997

*RES
1 *27:5 *1078:A 0.24
2 *27:4 *27:5 4
3 *27 *27:14 0.075
4 *27:4 *27:3 0.6
5 *27:14 *27:15 0.3
6 *27:10 *27:3 4
7 *27:12 *27:15 4
8 *27:10 *27:9 0.32
9 *27:12 *27:11 1.76
10 *27:8 *27:9 4
11 *27:6 *27:11 4
12 *27:8 *27:7 5.7
13 *27:7 *27:6 3
14 *27:13 *27:7 4
15 *27:13 *1238:A 0.48
*END

*D_NET *28 0.0305012

*CONN
*P *28 O *C 578.4 97.5 *L 0
*I *1218:Y O *C 457.2 115.5 *L 0 *D OAI22X1

*CAP
1 *28 6.773e-05
2 *1218:Y 0.00028335
3 *28:2 0.0004283
4 *28:3 0.0004283
5 *28:4 0.00866712
6 *28:5 0.00866712
7 *28:6 0.00146983
8 *28:7 0.00136755
9 *28:4 *12:32 0.00249122
10 *28:5 *12:33 0.00249122
11 *28:4 *12:34 0.0003986
12 *28:5 *12:35 0.0003986
13 *28:4 *12:35 0.0001993
14 *28:5 *12:36 0.0001993
15 *28:4 *12:36 0.00049824
16 *28:5 *12:37 0.00049824
17 *28:2 *12:10 7.673e-05
18 *28:3 *12:11 7.673e-05
19 *28:4 *270:9 0.00089684
20 *28:5 *270:10 0.00089684

*RES
1 *28:7 *28 0.075
2 *28:7 *28:6 1.5
3 *28:4 *28:6 4
4 *28:5 *28:4 4
5 *28:3 *28:5 4
6 *28:3 *28:2 0.3
7 *28:2 *1218:Y 4
*END

*D_NET *29 0.0247818

*CONN
*P *29 O *C 578.4 94.5 *L 0
*I *1219:Y O *C 462 94.5 *L 0 *D OAI22X1

*CAP
1 *29 6.773e-05
2 *1219:Y 0.00028335
3 *29:2 0.00825732
4 *29:3 0.00825732
5 *29:4 0.00038673
6 *29:5 0.00038673
7 *29:6 0.00023774
8 *29:2 *324:42 0.00020108
9 *29:3 *324:39 0.00020108
10 *29:2 *324:39 0.00025135
11 *29:3 *324:40 0.00025135
12 *29:2 *271:12 0.00129543
13 *29:3 *271:13 0.00129543
14 *29:2 *271:8 0.00020983
15 *29:3 *271:9 0.00020983
16 *29:2 *30:4 0.00149473
17 *29:3 *30:5 0.00149473

*RES
1 *29:6 *29 0.075
2 *29:2 *29:6 4
3 *29:3 *29:2 3.76
4 *29:5 *29:3 4
5 *29:4 *1219:Y 4
6 *29:4 *29:5 0.24
*END

*D_NET *30 0.0146044

*CONN
*P *30 O *C 578.4 91.5 *L 0
*I *1220:Y O *C 541.2 115.5 *L 0 *D OAI22X1

*CAP
1 *30 6.773e-05
2 *1220:Y 0.00028335
3 *30:2 0.00175187
4 *30:3 0.00175187
5 *30:4 0.00238846
6 *30:5 0.00238846
7 *30:6 0.00023774
8 *30:4 *29:2 0.00149473
9 *30:5 *29:3 0.00149473
10 *30:4 *32:4 0.00035189
11 *30:5 *32:5 0.00035189
12 *30:2 *32:2 7.673e-05
13 *30:3 *32:3 7.673e-05
14 *30:2 *12:28 2.331e-05
15 *30:3 *12:20 2.331e-05
16 *30:2 *12:29 0.00046041
17 *30:3 *12:30 0.00046041
18 *30:2 *271:6 0.00046041
19 *30:3 *271:7 0.00046041

*RES
1 *30:6 *30 0.075
2 *30:4 *30:6 4
3 *30:5 *30:4 1.2
4 *30:3 *30:5 4
5 *30:3 *30:2 2.4
6 *30:2 *1220:Y 4
*END

*D_NET *31 0.0133416

*CONN
*P *31 O *C 578.4 88.5 *L 0
*I *1221:Y O *C 543.6 55.5 *L 0 *D OAI22X1

*CAP
1 *31 0.00028445
2 *1221:Y 0.00028335
3 *31:2 0.00047494
4 *31:3 0.00047494
5 *31:4 0.00292193
6 *31:5 0.00292193
7 *31:6 0.00269122
8 *31:7 0.00280566
9 *31:5 *35:4 8.812e-05
10 *31:4 *35:5 8.812e-05
11 *31:7 *35:6 0.00015347
12 *31:6 *35:7 0.00015347

*RES
1 *31:7 *31 0.315
2 *31:6 *31:7 3
3 *31:5 *31:6 4
4 *31:4 *31:5 1.04
5 *31:2 *31:4 4
6 *31:3 *1221:Y 4
7 *31:3 *31:2 0.3
*END

*D_NET *32 0.00940102

*CONN
*P *32 O *C 578.4 85.5 *L 0
*I *1222:Y O *C 543.6 94.5 *L 0 *D OAI22X1

*CAP
1 *32 6.773e-05
2 *1222:Y 0.00028335
3 *32:2 0.00080796
4 *32:3 0.00080796
5 *32:4 0.00258743
6 *32:5 0.00258743
7 *32:6 0.00023774
8 *32:4 *30:4 0.00035189
9 *32:5 *30:5 0.00035189
10 *32:2 *30:2 7.673e-05
11 *32:3 *30:3 7.673e-05
12 *32:4 *34:6 0.00035189
13 *32:5 *34:7 0.00035189
14 *32:2 *12:28 7.673e-05
15 *32:3 *12:20 7.673e-05
16 *32:2 *12:20 0.00015347
17 *32:3 *12:21 0.00015347

*RES
1 *32:6 *32 0.075
2 *32:4 *32:6 4
3 *32:5 *32:4 1.12
4 *32:3 *32:5 4
5 *32:3 *32:2 0.9
6 *32:2 *1222:Y 4
*END

*D_NET *33 0.0162883

*CONN
*P *33 O *C 578.4 82.5 *L 0
*I *1223:Y O *C 543.6 34.5 *L 0 *D OAI22X1

*CAP
1 *33 6.773e-05
2 *1223:Y 0.00028335
3 *33:2 0.00180448
4 *33:3 0.00228464
5 *33:4 0.002897
6 *33:5 0.00241684
7 *33:6 0.00245767
8 *33:7 0.00245767
9 *33:8 0.00023774
10 *33:5 *261:4 0.00069061
11 *33:4 *261:5 0.00069061

*RES
1 *33:8 *33 0.075
2 *33:7 *33:8 4
3 *33:6 *33:7 2.64
4 *33:5 *33:6 4
5 *33:4 *33:5 3
6 *33:3 *33:4 0.72
7 *33:2 *1223:Y 4
8 *33:2 *33:3 1.8
*END

*D_NET *34 0.022498

*CONN
*P *34 O *C 578.4 79.5 *L 0
*I *1224:Y O *C 481.2 94.5 *L 0 *D OAI22X1

*CAP
1 *34 6.773e-05
2 *1224:Y 0.00028335
3 *34:2 0.00131999
4 *34:3 0.00131999
5 *34:4 0.00222003
6 *34:5 0.00217257
7 *34:6 0.00555877
8 *34:7 0.00560623
9 *34:8 0.00023774
10 *34:4 *271:8 0.00109614
11 *34:5 *271:9 0.00109614
12 *34:6 *32:4 0.00035189
13 *34:7 *32:5 0.00035189
14 *34:4 *35:4 8.134e-05
15 *34:5 *35:5 8.134e-05
16 *34:6 *35:4 0.00032641
17 *34:7 *35:5 0.00032641

*RES
1 *34:8 *34 0.075
2 *34:6 *34:8 4
3 *34:7 *34:6 2.24
4 *34:7 *34:4 0.1
5 *34:5 *34:4 0.96
6 *34:3 *34:5 4
7 *34:3 *34:2 1.2
8 *34:2 *1224:Y 4
*END

*D_NET *35 0.0235149

*CONN
*P *35 O *C 578.4 76.5 *L 0
*I *1225:Y O *C 476.4 55.5 *L 0 *D OAI22X1

*CAP
1 *35 6.773e-05
2 *1225:Y 0.00028335
3 *35:2 0.00171596
4 *35:3 0.00171596
5 *35:4 0.00865624
6 *35:5 0.00865624
7 *35:6 0.00050925
8 *35:7 0.00061153
9 *35:4 *34:4 8.134e-05
10 *35:5 *34:5 8.134e-05
11 *35:4 *34:6 0.00032641
12 *35:5 *34:7 0.00032641
13 *35:4 *31:5 8.812e-05
14 *35:5 *31:4 8.812e-05
15 *35:6 *31:7 0.00015347
16 *35:7 *31:6 0.00015347

*RES
1 *35:6 *35 0.075
2 *35:7 *35:6 0.6
3 *35:4 *35:7 4
4 *35:5 *35:4 3.36
5 *35:2 *35:5 4
6 *35:3 *1225:Y 4
7 *35:3 *35:2 1.5
*END

*D_NET *36 0.143291

*CONN
*P *36 I *C 0 100.5 *L 0
*I *666:CLK I *C 296.4 517.5 *L 0.0161 *D DFFSR
*I *665:CLK I *C 188.4 517.5 *L 0.0161 *D DFFSR
*I *664:CLK I *C 313.2 472.5 *L 0.0161 *D DFFSR
*I *663:CLK I *C 193.2 457.5 *L 0.0161 *D DFFSR

*CAP
1 *36 0.00050843
2 *666:CLK 0.00028335
3 *665:CLK 0.00028335
4 *664:CLK 0.00028335
5 *663:CLK 0.00028335
6 *36:5 0.00629424
7 *36:6 0.023455
8 *36:7 0.00284171
9 *36:8 0.00284171
10 *36:9 0.00199988
11 *36:10 0.00164873
12 *36:11 0.00067831
13 *36:12 0.0007658
14 *36:13 0.00789739
15 *36:14 0.00745875
16 *36:15 0.0140822
17 *36:16 0.0143997
18 *36:17 0.00324026
19 *36:18 0.00292285
20 *36:19 0.00359873
21 *36:20 0.00359873
22 *36:21 0.00165267
23 *36:22 0.0104628
24 *36:23 0.00920289
25 *36:24 0.00067831
26 *36:25 0.00067831
27 *36:26 0.0178392
28 *36:21 *611:6 0.0001993
29 *36:22 *611:5 0.0001993
30 *36:22 *611:6 0.00109614
31 *36:23 *611:5 0.00109614
32 *36:24 *611:8 2.331e-05
33 *36:25 *611:7 2.331e-05
34 *36:7 *614:5 0.00011655
35 *36:8 *614:4 0.00011655
36 *36:9 *614:5 0.00015347
37 *36:10 *614:4 0.00015347
38 *36:11 *614:3 2.331e-05
39 *36:9 *614:2 2.331e-05
40 *36:9 *614:3 9.324e-05
41 *36:10 *614:2 9.324e-05

*RES
1 *36:20 *664:CLK 4
2 *36:20 *36:19 3.9
3 *36:24 *666:CLK 4
4 *36:21 *36:19 4
5 *36:25 *36:24 0.6
6 *36:22 *36:21 0.56
7 *36:22 *36:25 4
8 *36:11 *665:CLK 4
9 *36:23 *36:22 3.6
10 *36:9 *36:11 0.6
11 *36:9 *36:23 4
12 *36:10 *36:9 1.8
13 *36:10 *36:7 0.24
14 *36:8 *36:7 3
15 *36:8 *36:12 0.24
16 *36:13 *663:CLK 4
17 *36:13 *36:12 0.6
18 *36:14 *36:13 8.1
19 *36:15 *36:14 4
20 *36:16 *36:15 5.2
21 *36:17 *36:16 0.2
22 *36:18 *36:17 1.04
23 *36:5 *36:18 4
24 *36 *36:26 0.555
25 *36:6 *36:5 7
26 *36:26 *36:6 20
*END

*D_NET *37 0.0953143

*CONN
*P *37 I *C 0 250.5 *L 0
*I *1237:A I *C 373.2 235.5 *L 0.0333 *D INVX2
*I *933:B I *C 433.2 235.5 *L 0.027 *D OR2X2

*CAP
1 *37 6.871e-05
2 *1237:A 0.00028335
3 *933:B 0.00019498
4 *37:3 0.0131792
5 *37:4 0.0131792
6 *37:5 0.0117903
7 *37:6 0.0100222
8 *37:7 0.00507112
9 *37:8 0.00502968
10 *37:9 0.00281959
11 *37:10 0.00281959
12 *37:11 0.00137913
13 *37:12 0.00137913
14 *37:13 0.00408884
15 *37:14 0.00233538
16 *37:15 0.00036499
17 *37:16 0.00140677
18 *37:17 0.00140677
19 *37:18 0.00023872
20 *37:14 *419:16 0.00127883
21 *37:13 *419:17 0.00127883
22 *37:13 *419:17 0.0008138
23 *37:5 *419:18 0.0008138
24 *37:7 *598:88 0.00139508
25 *37:8 *598:106 0.00139508
26 *37:3 *598:87 0.00055296
27 *37:4 *598:88 0.00055296
28 *37:3 *598:88 0.00037702
29 *37:4 *598:106 0.00037702
30 *37:3 *598:82 2.711e-05
31 *37:4 *598:83 2.711e-05
32 *37:5 *505:7 0.00259087
33 *37:6 *505:6 0.00259087
34 *37:3 *514:8 0.00209263
35 *37:4 *514:7 0.00209263

*RES
1 *37 *37:18 0.075
2 *37:8 *37:18 4
3 *37:8 *37:7 2.08
4 *37:4 *37:7 0.1
5 *37:4 *37:3 5.28
6 *37:3 *37:10 0.1
7 *37:10 *37:9 0.96
8 *37:12 *1237:A 4
9 *37:6 *37:9 0.1
10 *37:12 *37:11 1.2
11 *37:6 *37:5 4.08
12 *37:5 *37:11 4
13 *37:13 *37:14 1.02667
14 *37:5 *37:13 0.893333
15 *37:17 *37:14 4
16 *37:16 *37:17 1.2
17 *37:15 *37:16 4
18 *37:15 *933:B 0.225
*END

*D_NET *40 0.0622653

*CONN
*P *40 O *C 198 0 *L 0
*I *1085:Y O *C 246 271.5 *L 0 *D NAND2X1

*CAP
1 *40 0.00220576
2 *1085:Y 0.00028335
3 *40:2 0.00314143
4 *40:3 0.00314143
5 *40:4 0.00237577
6 *40:5 0.0161302
7 *40:6 0.01618
8 *40:7 0.00107168
9 *40:8 0.00107168
10 *40:9 0.00502855
11 *40:10 0.0049787
12 *40:2 *548:2 0.00179368
13 *40:3 *548:3 0.00179368
14 *40:10 *2:12 0.00153469
15 *40:9 *2:13 0.00153469

*RES
1 *40:10 *1085:Y 4
2 *40:9 *40:10 6.3
3 *40:8 *40:9 0.24
4 *40:7 *40:8 0.9
5 *40:6 *40:7 0.24
6 *40:5 *40:6 17.4
7 *40:2 *40:5 4
8 *40:3 *40:2 1.44
9 *40 *40:4 2.505
10 *40:4 *40:3 4
*END

*D_NET *41 0.0689049

*CONN
*P *41 O *C 349.2 0 *L 0
*I *742:Y O *C 313.2 298.5 *L 0 *D INVX2

*CAP
1 *41 0.00165076
2 *742:Y 0.00028335
3 *41:2 0.00274022
4 *41:3 0.0137025
5 *41:4 0.00182077
6 *41:5 0.00274022
7 *41:6 0.00247148
8 *41:7 0.00225475
9 *41:8 0.00625406
10 *41:9 0.0024392
11 *41:10 0.00222248
12 *41:11 0.0136408
13 *41:12 0.000616
14 *41:13 0.00115781
15 *41:14 0.00033346
16 *41:15 0.00033346
17 *41:16 0.00620735
18 *41:5 *599:38 2.711e-05
19 *41:2 *599:39 2.711e-05
20 *41:5 *599:40 2.331e-05
21 *41:2 *599:41 2.331e-05
22 *41:11 *599:42 0.00283918
23 *41:3 *599:43 0.00283918
24 *41:10 *599:44 1.98e-05
25 *41:9 *599:45 1.98e-05
26 *41:10 *599:36 4.34e-06
27 *41:9 *599:37 4.34e-06
28 *41:7 *599:36 6.754e-05
29 *41:6 *599:37 6.754e-05
30 *41:15 *8:12 7.673e-05
31 *41:14 *8:13 7.673e-05
32 *41:13 *8:12 4.662e-05
33 *41:12 *8:13 4.662e-05
34 *41:11 *8:12 6.993e-05
35 *41:3 *8:13 6.993e-05
36 *41:11 *8:12 4.662e-05
37 *41:3 *8:13 4.662e-05
38 *41:11 *8:13 0.00013987
39 *41:3 *8:14 0.00013987
40 *41:11 *8:14 0.00027973
41 *41:3 *8:15 0.00027973
42 *41:11 *8:15 0.00037297
43 *41:3 *8:16 0.00037297
44 *41:10 *8:12 4.34e-06
45 *41:9 *8:13 4.34e-06

*RES
1 *41:16 *742:Y 4
2 *41:8 *41:16 6
3 *41:7 *41:8 0.24
4 *41:6 *41:7 2.1
5 *41:6 *41:10 0.48
6 *41:9 *41:10 1.8
7 *41:9 *41:13 0.72
8 *41:12 *41:13 0.6
9 *41:12 *41:15 0.12
10 *41:14 *41:15 0.3
11 *41:11 *41:14 0.12
12 *41 *41:4 1.905
13 *41:3 *41:11 17.1
14 *41:5 *41:4 4
15 *41:2 *41:3 4
16 *41:2 *41:5 0.88
*END

*D_NET *125 0.0208342

*CONN
*I *950:Y O *C 450 268.5 *L 0 *D NAND3X1
*I *905:B I *C 478.8 214.5 *L 0.0325 *D AOI22X1
*I *671:A I *C 466.8 274.5 *L 0.0333 *D INVX2

*CAP
1 *950:Y 0.00102686
2 *905:B 0.00028335
3 *671:A 0.00038459
4 *125:3 0.0024483
5 *125:4 0.0024483
6 *125:5 0.00091607
7 *125:6 0.0019996
8 *125:7 0.0019996
9 *125:8 0.00139368
10 *125:9 0.00139368
11 *125:10 0.00043575
12 *125:11 0.00182408
13 *125:8 *333:12 0.00069754
14 *125:9 *333:13 0.00069754
15 *125:3 *333:2 0.00084408
16 *125:4 *333:3 0.00084408
17 *125:3 *137:6 0.00053714
18 *125:4 *137:5 0.00053714
19 *671:A *671:Y 6.139e-05
20 *125:5 *137:3 6.139e-05

*RES
1 *125:5 *671:A 0.48
2 *950:Y *125:11 1.185
3 *125:11 *125:5 0.6
4 *125:10 *125:11 0.3
5 *125:3 *125:10 4
6 *125:4 *125:3 3.3
7 *125:9 *125:4 4
8 *125:9 *125:8 0.56
9 *125:6 *125:8 4
10 *125:7 *125:6 1.8
11 *905:B *125:7 4
*END

*D_NET *126 0.0403512

*CONN
*I *939:Y O *C 409.2 274.5 *L 0 *D OAI21X1
*I *938:B I *C 478.8 238.5 *L 0.0277 *D NOR2X1
*I *907:B I *C 466.8 175.5 *L 0.0325 *D AOI22X1

*CAP
1 *939:Y 0.00028335
2 *938:B 0.00028335
3 *907:B 0.00028335
4 *126:3 0.00084007
5 *126:4 0.00084007
6 *126:5 0.00442114
7 *126:6 0.00442114
8 *126:7 0.00642706
9 *126:8 0.00642706
10 *126:9 0.0021541
11 *126:10 0.00123042
12 *126:11 0.00110065
13 *126:12 0.00518483
14 *126:13 0.00518483
15 *126:14 0.00049632
16 *126:15 0.00038673
17 *126:16 0.00038673

*RES
1 *126:4 *939:Y 4
2 *126:4 *126:3 0.6
3 *126:13 *126:3 4
4 *126:8 *907:B 4
5 *126:16 *938:B 4
6 *126:13 *126:12 1.6
7 *126:8 *126:7 6
8 *126:15 *126:16 0.24
9 *126:5 *126:12 4
10 *126:14 *126:7 4
11 *126:11 *126:15 4
12 *126:6 *126:5 4.2
13 *126:14 *126:9 0.1
14 *126:9 *126:11 0.32
15 *126:10 *126:6 4
16 *126:10 *126:9 0.32
*END

*D_NET *127 0.00542866

*CONN
*I *944:Y O *C 507.6 235.5 *L 0 *D OAI21X1
*I *938:A I *C 483.6 232.5 *L 0.027 *D NOR2X1
*I *683:A I *C 500.4 235.5 *L 0.0333 *D INVX2

*CAP
1 *944:Y 0.0006239
2 *938:A 0.00103984
3 *683:A 0.00079391
4 *127:3 0.00044713
5 *127:4 0.00071057
6 *127:5 0.00120985
7 *127:6 0.00060346

*RES
1 *938:A *127:5 1.2
2 *127:6 *127:5 4
3 *127:6 *127:4 0.48
4 *127:4 *127:3 0.3
5 *683:A *127:3 4
6 *683:A *944:Y 0.72
*END

*D_NET *128 0.0239499

*CONN
*I *958:Y O *C 512.4 334.5 *L 0 *D OAI21X1
*I *957:B I *C 505.2 391.5 *L 0.0277 *D NOR2X1
*I *680:A I *C 500.4 295.5 *L 0.0333 *D INVX2

*CAP
1 *958:Y 0.00061968
2 *957:B 0.00028335
3 *680:A 0.000476
4 *128:3 0.00361973
5 *128:4 0.00651245
6 *128:5 0.00064601
7 *128:6 0.00317607
8 *128:7 0.00078969
9 *128:3 *397:12 0.00145796
10 *128:4 *397:13 0.00145796
11 *128:4 *397:12 0.00099755
12 *128:6 *397:13 0.00099755
13 *128:3 *144:2 0.00145796
14 *128:4 *144:3 0.00145796

*RES
1 *128:7 *958:Y 0.705
2 *128:3 *957:B 4
3 *128:4 *128:7 4
4 *128:4 *128:3 5.7
5 *128:6 *128:4 3.9
6 *680:A *128:5 0.48
7 *128:5 *128:6 4
*END

*D_NET *129 0.0139968

*CONN
*I *964:Y O *C 500.4 454.5 *L 0 *D OAI21X1
*I *957:A I *C 500.4 397.5 *L 0.027 *D NOR2X1
*I *678:A I *C 500.4 415.5 *L 0.0333 *D INVX2

*CAP
1 *964:Y 0.00020796
2 *957:A 0.00028335
3 *678:A 0.00028335
4 *129:3 0.00037797
5 *129:4 0.00112165
6 *129:5 0.00107737
7 *129:6 0.0017198
8 *129:7 0.00400775
9 *129:8 0.00261558
10 *129:8 *166:21 0.00061388
11 *129:7 *166:22 0.00061388
12 *129:8 *166:22 7.673e-05
13 *129:7 *166:23 7.673e-05
14 *129:7 *166:22 0.00046041
15 *129:6 *166:23 0.00046041

*RES
1 *129:3 *964:Y 0.24
2 *129:5 *129:3 4
3 *129:4 *129:5 0.9
4 *129:4 *129:8 0.24
5 *129:7 *678:A 4
6 *129:7 *129:8 3
7 *129:6 *129:7 1.8
8 *957:A *129:6 4
*END

*D_NET *130 0.00479544

*CONN
*I *970:Y O *C 471.6 415.5 *L 0 *D OAI21X1
*I *676:A I *C 471.6 394.5 *L 0.0333 *D INVX2

*CAP
1 *970:Y 0.00028335
2 *676:A 0.00028335
3 *130:2 0.00211437
4 *130:3 0.00211437

*RES
1 *130:3 *970:Y 4
2 *130:2 *130:3 2.1
3 *676:A *130:2 4
*END

*D_NET *131 0.0182605

*CONN
*I *977:Y O *C 414 415.5 *L 0 *D OAI21X1
*I *976:B I *C 430.8 391.5 *L 0.0277 *D NOR2X1
*I *674:A I *C 426 355.5 *L 0.0333 *D INVX2

*CAP
1 *977:Y 0.00019498
2 *976:B 0.00143288
3 *674:A 0.00023916
4 *131:3 0.00107104
5 *131:4 0.00100189
6 *131:5 0.0037003
7 *131:6 0.00160289
8 *131:7 0.00036499
9 *131:8 0.00603464
10 *131:9 0.00261769

*RES
1 *977:Y *131:7 0.225
2 *131:6 *976:B 1.425
3 *131:9 *131:7 4
4 *131:8 *131:6 4
5 *131:8 *131:9 2.4
6 *131:5 *131:8 3.3
7 *131:4 *131:5 4
8 *674:A *131:3 0.27
9 *131:4 *131:3 0.96
*END

*D_NET *132 0.0138614

*CONN
*I *983:Y O *C 416.4 394.5 *L 0 *D OAI21X1
*I *976:A I *C 435.6 397.5 *L 0.027 *D NOR2X1
*I *669:A I *C 438 355.5 *L 0.0333 *D INVX2

*CAP
1 *983:Y 0.00141123
2 *976:A 0.00028335
3 *669:A 0.00020796
4 *132:3 0.00158124
5 *132:4 0.00037797
6 *132:5 0.00418325
7 *132:6 0.0005986
8 *132:7 0.00474479
9 *132:8 0.00047297

*RES
1 *983:Y *132:3 1.425
2 *132:6 *132:3 4
3 *132:8 *976:A 4
4 *132:6 *132:7 0.48
5 *132:7 *132:8 0.3
6 *132:5 *132:7 3.9
7 *132:4 *132:5 4
8 *132:4 *669:A 0.24
*END

*D_NET *133 0.00794654

*CONN
*I *1188:A I *C 250.8 475.5 *L 0.0323 *D OAI21X1
*I *667:Y O *C 248.4 511.5 *L 0 *D INVX2

*CAP
1 *1188:A 0.00028335
2 *667:Y 0.00020796
3 *133:2 0.00353863
4 *133:3 0.00353863
5 *133:4 0.00037797

*RES
1 *133:3 *1188:A 4
2 *133:3 *133:2 3.6
3 *133:4 *133:2 4
4 *667:Y *133:4 0.24
*END

*D_NET *134 0.0189007

*CONN
*I *1204:C I *C 195.6 481.5 *L 0.0216 *D OAI21X1
*I *1188:C I *C 243.6 481.5 *L 0.0216 *D OAI21X1
*I *668:Y O *C 229.2 511.5 *L 0 *D INVX2

*CAP
1 *1204:C 0.00028335
2 *1188:C 0.00103984
3 *668:Y 0.00028335
4 *134:3 0.00048981
5 *134:4 0.000446
6 *134:5 0.00220777
7 *134:6 0.00230825
8 *134:7 0.00226224
9 *134:8 0.00226224
10 *134:9 0.00120985
11 *134:10 0.00044713
12 *134:11 0.00044713
13 *134:7 *567:6 0.00059789
14 *134:8 *567:7 0.00059789
15 *134:5 *567:4 0.00061388
16 *134:6 *567:5 0.00061388
17 *134:7 *315:13 0.00139508
18 *134:8 *315:14 0.00139508

*RES
1 *134:10 *1204:C 4
2 *134:10 *134:11 0.3
3 *134:8 *134:11 4
4 *134:9 *1188:C 1.2
5 *134:8 *134:7 1.12
6 *134:5 *668:Y 4
7 *134:4 *134:9 4
8 *134:6 *134:7 4
9 *134:6 *134:5 2.7
10 *134:4 *134:3 0.3
11 *134:6 *134:3 0.24
*END

*D_NET *135 0.0084715

*CONN
*I *931:A I *C 450 334.5 *L 0.0323 *D OAI22X1
*I *669:Y O *C 440.4 358.5 *L 0 *D INVX2

*CAP
1 *931:A 0.00016558
2 *669:Y 0.00100849
3 *135:2 0.00033559
4 *135:3 0.00215886
5 *135:4 0.0011785
6 *135:5 0.00215886
7 *135:5 *159:16 7.673e-05
8 *135:3 *159:17 7.673e-05
9 *135:5 *159:17 0.00053714
10 *135:3 *159:18 0.00053714
11 *135:4 *1021:D 6.139e-05
12 *669:Y *159:19 6.139e-05
13 *135:2 *1040:C 5.755e-05
14 *931:A *159:20 5.755e-05

*RES
1 *669:Y *135:4 1.2
2 *135:5 *135:4 4
3 *135:3 *135:5 2.4
4 *135:2 *135:3 4
5 *931:A *135:2 0.225
*END

*D_NET *136 0.0480179

*CONN
*I *929:C I *C 450 181.5 *L 0.0216 *D OAI21X1
*I *925:C I *C 450 121.5 *L 0.0216 *D OAI21X1
*I *921:C I *C 502.8 181.5 *L 0.0216 *D OAI21X1
*I *917:C I *C 514.8 121.5 *L 0.0216 *D OAI21X1
*I *913:C I *C 522 181.5 *L 0.0216 *D OAI21X1
*I *909:C I *C 510 148.5 *L 0.0216 *D OAI21X1
*I *670:Y O *C 486 151.5 *L 0 *D INVX2

*CAP
1 *929:C 0.00019498
2 *925:C 0.00028335
3 *921:C 0.00028335
4 *917:C 0.000476
5 *913:C 0.00028335
6 *909:C 0.00028335
7 *670:Y 0.00028335
8 *136:7 0.00077987
9 *136:8 0.00249612
10 *136:9 0.0019996
11 *136:10 0.00072819
12 *136:11 0.00072819
13 *136:12 0.00291008
14 *136:13 0.00286337
15 *136:14 0.0004491
16 *136:15 0.00301186
17 *136:16 0.00268606
18 *136:17 0.00074174
19 *136:18 0.00106917
20 *136:19 0.00106917
21 *136:20 0.00533715
22 *136:21 0.00385165
23 *136:22 0.00282878
24 *136:23 0.00048102
25 *136:24 0.00267782
26 *136:25 0.00050503
27 *136:26 0.00050503
28 *136:27 0.00043575
29 *136:28 0.00036499
30 *136:29 0.00038673
31 *136:30 0.000446
32 *136:31 0.000446
33 *136:32 0.00212339
34 *136:33 0.00168519
35 *136:34 0.00063789
36 *136:35 0.00168519

*RES
1 *136:30 *913:C 4
2 *136:13 *925:C 4
3 *136:30 *136:31 0.3
4 *136:13 *136:12 3
5 *929:C *136:28 0.225
6 *136:35 *136:31 4
7 *136:12 *136:23 0.24
8 *136:24 *136:28 4
9 *136:33 *136:35 0.56
10 *136:26 *670:Y 4
11 *136:23 *136:22 0.3
12 *136:22 *136:24 2.7
13 *136:29 *921:C 4
14 *136:14 *136:33 4
15 *136:26 *136:25 0.3
16 *136:21 *136:22 4
17 *136:29 *136:15 0.24
18 *136:15 *136:14 0.3
19 *136:20 *136:25 4
20 *136:21 *136:20 1.12
21 *136:16 *136:15 2.7
22 *136:20 *136:32 0.64
23 *136:32 *136:16 4
24 *136:32 *136:34 0.16
25 *136:7 *136:34 4
26 *136:8 *909:C 4
27 *136:8 *136:7 0.6
28 *136:9 *136:8 1.8
29 *136:19 *136:9 4
30 *136:19 *136:18 0.32
31 *136:10 *136:18 4
32 *136:11 *136:10 0.6
33 *136:27 *136:11 4
34 *917:C *136:17 0.48
35 *136:17 *136:27 0.3
*END

*D_NET *137 0.00909988

*CONN
*I *937:B I *C 471.6 238.5 *L 0.0269 *D NAND3X1
*I *671:Y O *C 469.2 271.5 *L 0 *D INVX2

*CAP
1 *937:B 0.0005049
2 *671:Y 0.00038458
3 *137:2 0.00080327
4 *137:3 0.00055459
5 *137:4 0.00113816
6 *137:5 0.00225866
7 *137:6 0.00225866
8 *137:6 *125:3 0.00053714
9 *137:5 *125:4 0.00053714
10 *671:Y *671:A 6.139e-05
11 *137:3 *125:5 6.139e-05

*RES
1 *137:3 *671:Y 0.48
2 *137:6 *137:3 4
3 *137:5 *137:6 2.7
4 *137:2 *137:5 4
5 *137:2 *137:4 0.72
6 *937:B *137:4 0.57
*END

*D_NET *138 0.0164554

*CONN
*I *951:B I *C 402 295.5 *L 0.0325 *D AOI22X1
*I *672:Y O *C 406.8 358.5 *L 0 *D INVX2

*CAP
1 *951:B 0.00028335
2 *672:Y 0.00028335
3 *138:2 0.00370431
4 *138:3 0.00366003
5 *138:4 0.00098422
6 *138:5 0.0010285
7 *138:6 0.0021802
8 *138:7 0.0021802
9 *138:8 0.00026903
10 *138:9 0.00085121
11 *138:10 0.00103104

*RES
1 *138:7 *672:Y 4
2 *138:6 *138:7 1.8
3 *138:10 *138:6 4
4 *138:9 *138:10 0.226667
5 *138:8 *138:9 0.0133333
6 *138:4 *138:8 4
7 *138:5 *138:4 0.9
8 *138:5 *138:2 0.24
9 *138:3 *951:B 4
10 *138:3 *138:2 3.6
*END

*D_NET *139 0.00291156

*CONN
*I *999:B I *C 382.8 511.5 *L 0.033 *D OAI21X1
*I *673:Y O *C 366 511.5 *L 0 *D INVX2

*CAP
1 *999:B 0.00145578
2 *673:Y 0.00145578

*RES
1 *673:Y *999:B 1.68
*END

*D_NET *140 0.00626728

*CONN
*I *926:A I *C 428.4 334.5 *L 0.0323 *D OAI22X1
*I *674:Y O *C 428.4 358.5 *L 0 *D INVX2

*CAP
1 *926:A 0.00028335
2 *674:Y 0.00028335
3 *140:2 0.00162253
4 *140:3 0.00162253
5 *140:3 *423:10 0.00061388
6 *140:2 *423:11 0.00061388
7 *140:3 *183:16 0.00061388
8 *140:2 *183:17 0.00061388

*RES
1 *140:3 *674:Y 4
2 *140:2 *926:A 4
3 *140:2 *140:3 2.4
*END

*D_NET *141 0.0148331

*CONN
*I *980:B I *C 394.8 451.5 *L 0.0277 *D NOR2X1
*I *979:B I *C 402 448.5 *L 0.0216 *D NAND2X1
*I *675:Y O *C 358.8 451.5 *L 0 *D INVX2

*CAP
1 *980:B 0.00019498
2 *979:B 0.00028335
3 *675:Y 0.0006239
4 *141:3 0.00078839
5 *141:4 0.00078839
6 *141:5 0.00047919
7 *141:6 0.00047919
8 *141:7 0.00241038
9 *141:8 0.00205781
10 *141:9 0.00077987
11 *141:10 0.00077987
12 *141:11 0.0003615
13 *141:12 0.00065796
14 *141:13 0.00079391
15 *141:14 0.00036499
16 *141:11 *185:24 8.304e-05
17 *141:12 *185:16 8.304e-05
18 *141:12 *185:16 0.00031555
19 *141:7 *185:17 0.00031555
20 *141:7 *185:16 0.00109614
21 *141:8 *185:17 0.00109614

*RES
1 *675:Y *141:13 0.72
2 *141:3 *141:13 4
3 *141:14 *980:B 0.225
4 *141:4 *141:3 0.6
5 *141:9 *141:14 4
6 *141:8 *141:4 4
7 *141:10 *141:9 0.6
8 *141:5 *979:B 4
9 *141:8 *141:7 0.88
10 *141:7 *141:10 4
11 *141:6 *141:5 0.3
12 *141:12 *141:11 0.0666667
13 *141:7 *141:12 0.253333
14 *141:11 *141:6 4
*END

*D_NET *142 0.026224

*CONN
*I *956:B I *C 450 391.5 *L 0.0269 *D NAND3X1
*I *922:A I *C 466.8 295.5 *L 0.0323 *D OAI22X1
*I *676:Y O *C 469.2 391.5 *L 0 *D INVX2

*CAP
1 *956:B 0.00028335
2 *922:A 0.00068396
3 *676:Y 0.00123482
4 *142:3 0.00085397
5 *142:4 0.00611539
6 *142:5 0.00386826
7 *142:6 0.00615967
8 *142:7 0.00120985
9 *142:8 0.00036499
10 *142:9 0.00081289
11 *142:10 0.00081289
12 *142:11 0.00382398

*RES
1 *142:9 *956:B 4
2 *142:9 *142:10 0.72
3 *142:7 *142:10 4
4 *142:7 *676:Y 1.2
5 *676:Y *142:8 0.225
6 *142:11 *142:8 4
7 *142:5 *142:11 3.9
8 *142:5 *142:6 0.24
9 *142:4 *142:6 5.7
10 *922:A *142:3 0.72
11 *142:3 *142:4 4
*END

*D_NET *143 0.0160873

*CONN
*I *1001:A I *C 457.2 514.5 *L 0.0323 *D OAI21X1
*I *975:B I *C 478.8 475.5 *L 0.0637 *D XOR2X1
*I *677:Y O *C 481.2 511.5 *L 0 *D INVX2

*CAP
1 *1001:A 0.00028335
2 *975:B 0.00028335
3 *677:Y 0.00028335
4 *143:3 0.0020427
5 *143:4 0.00199842
6 *143:5 0.0022694
7 *143:6 0.00156464
8 *143:7 0.0024749
9 *143:8 0.0024749
10 *143:9 0.00103239
11 *143:10 0.00068993
12 *143:11 0.00068993

*RES
1 *143:10 *1001:A 4
2 *143:10 *143:11 0.6
3 *143:8 *143:11 4
4 *143:8 *143:7 0.8
5 *143:9 *143:7 4
6 *143:5 *677:Y 4
7 *143:5 *143:9 0.9
8 *143:6 *143:5 1.5
9 *143:3 *143:6 0.24
10 *143:4 *975:B 4
11 *143:4 *143:3 2.1
*END

*D_NET *144 0.0190106

*CONN
*I *918:A I *C 502.8 334.5 *L 0.0323 *D OAI22X1
*I *678:Y O *C 502.8 418.5 *L 0 *D INVX2

*CAP
1 *918:A 0.00028335
2 *678:Y 0.00028335
3 *144:2 0.00691992
4 *144:3 0.00691992
5 *144:2 *128:3 0.00145796
6 *144:3 *128:4 0.00145796
7 *144:2 *379:2 0.00084408
8 *144:3 *379:3 0.00084408

*RES
1 *144:2 *678:Y 4
2 *144:3 *918:A 4
3 *144:3 *144:2 8.4
*END

*D_NET *145 0.0143549

*CONN
*I *1008:A I *C 531.6 514.5 *L 0.0323 *D OAI21X1
*I *969:B I *C 531.6 475.5 *L 0.0637 *D XOR2X1
*I *679:Y O *C 548.4 478.5 *L 0 *D INVX2

*CAP
1 *1008:A 0.00023916
2 *969:B 0.00028335
3 *679:Y 0.00018198
4 *145:3 0.00070284
5 *145:4 0.00070284
6 *145:5 0.00284943
7 *145:6 0.00284943
8 *145:7 0.00109197
9 *145:8 0.00116112
10 *145:9 0.0004675
11 *145:10 0.0004675
12 *145:11 0.0013065
13 *145:12 0.00106136
14 *145:13 0.00063789
15 *145:14 0.00035199

*RES
1 *145:14 *679:Y 0.21
2 *145:4 *969:B 4
3 *145:10 *145:14 4
4 *145:4 *145:3 0.6
5 *145:10 *145:9 0.3
6 *145:12 *145:3 4
7 *145:13 *145:9 4
8 *145:12 *145:11 0.32
9 *145:11 *145:13 0.16
10 *145:6 *145:11 4
11 *145:6 *145:5 3
12 *145:7 *145:5 4
13 *145:8 *145:7 0.96
14 *145:8 *1008:A 0.27
*END

*D_NET *146 0.00089424

*CONN
*I *914:A I *C 495.6 295.5 *L 0.0323 *D OAI22X1
*I *680:Y O *C 498 298.5 *L 0 *D INVX2

*CAP
1 *914:A 0.00023916
2 *680:Y 0.00020796
3 *146:2 0.00044712

*RES
1 *914:A *146:2 0.27
2 *146:2 *680:Y 0.24
*END

*D_NET *147 0.021652

*CONN
*I *1015:A I *C 546 394.5 *L 0.0323 *D OAI21X1
*I *963:B I *C 541.2 334.5 *L 0.0637 *D XOR2X1
*I *681:Y O *C 548.4 298.5 *L 0 *D INVX2

*CAP
1 *1015:A 0.00028335
2 *963:B 0.00028335
3 *681:Y 0.00028335
4 *147:3 0.00044175
5 *147:4 0.00091462
6 *147:5 0.00373446
7 *147:6 0.00555796
8 *147:7 0.00378673
9 *147:8 0.0028383
10 *147:9 0.00352815

*RES
1 *147:9 *1015:A 4
2 *147:7 *147:9 3.6
3 *147:8 *147:7 0.48
4 *147:6 *963:B 4
5 *147:6 *147:8 2.4
6 *147:5 *147:6 3.3
7 *147:5 *147:4 0.72
8 *147:3 *681:Y 4
9 *147:3 *147:4 0.3
*END

*D_NET *148 0.00607352

*CONN
*I *1022:B I *C 548.4 271.5 *L 0.033 *D OAI21X1
*I *682:Y O *C 546 298.5 *L 0 *D INVX2

*CAP
1 *1022:B 0.00018198
2 *682:Y 0.00028335
3 *148:2 0.0026281
4 *148:3 0.0026281
5 *148:4 0.00035199

*RES
1 *148:4 *1022:B 0.21
2 *148:3 *148:4 4
3 *148:3 *148:2 2.7
4 *148:2 *682:Y 4
*END

*D_NET *149 0.00855796

*CONN
*I *910:A I *C 495.6 274.5 *L 0.0323 *D OAI22X1
*I *683:Y O *C 498 238.5 *L 0 *D INVX2

*CAP
1 *910:A 0.00022313
2 *683:Y 0.00028335
3 *149:2 0.00297383
4 *149:3 0.00297383
5 *149:4 0.00039314
6 *149:2 *397:8 1.126e-05
7 *149:3 *397:9 1.126e-05
8 *149:2 *397:10 0.00084408
9 *149:3 *397:11 0.00084408

*RES
1 *910:A *149:4 0.225
2 *149:2 *149:4 4
3 *149:3 *683:Y 4
4 *149:3 *149:2 3.6
*END

*D_NET *150 0.0103466

*CONN
*I *947:B I *C 531.6 271.5 *L 0.0277 *D NOR2X1
*I *946:B I *C 524.4 268.5 *L 0.0216 *D NAND2X1
*I *684:Y O *C 517.2 298.5 *L 0 *D INVX2

*CAP
1 *947:B 0.00020796
2 *946:B 0.000476
3 *684:Y 0.00028335
4 *150:3 0.00103691
5 *150:4 0.00037797
6 *150:5 0.00203847
7 *150:6 0.00183748
8 *150:7 0.00188419
9 *150:8 0.0010908
10 *150:9 0.0004675
11 *150:10 0.00064601

*RES
1 *150:6 *684:Y 4
2 *150:10 *946:B 0.48
3 *150:7 *150:6 1.8
4 *150:9 *150:10 4
5 *150:7 *150:8 0.24
6 *150:9 *150:5 0.3
7 *150:5 *150:8 0.9
8 *150:4 *947:B 0.24
9 *150:5 *150:3 0.96
10 *150:3 *150:4 4
*END

*D_NET *151 0.00441322

*CONN
*I *1024:B I *C 414 178.5 *L 0.033 *D OAI21X1
*I *685:Y O *C 399.6 178.5 *L 0 *D INVX2

*CAP
1 *1024:B 0.00041594
2 *685:Y 3.466e-05
3 *151:2 0.00020796
4 *151:3 0.00034331
5 *151:4 0.00058595
6 *151:5 0.00047919
7 *151:6 0.00074263
8 *151:7 0.00050006
9 *151:8 0.00071679
10 *151:9 0.00038673

*RES
1 *151:4 *1024:B 0.48
2 *151:9 *151:4 4
3 *151:7 *151:9 0.24
4 *151:7 *151:8 0.3
5 *151:6 *151:8 0.48
6 *151:5 *151:6 0.3
7 *151:3 *151:5 4
8 *151:2 *151:3 0.2
9 *685:Y *151:2 0.04
*END

*D_NET *152 0.0061885

*CONN
*I *1015:B I *C 548.4 391.5 *L 0.033 *D OAI21X1
*I *686:Y O *C 546 418.5 *L 0 *D INVX2

*CAP
1 *1015:B 0.00028335
2 *686:Y 0.00019498
3 *152:2 0.00267259
4 *152:3 0.00267259
5 *152:4 0.00036499

*RES
1 *152:3 *1015:B 4
2 *152:3 *152:2 2.7
3 *152:4 *152:2 4
4 *686:Y *152:4 0.225
*END

*D_NET *153 0.00531784

*CONN
*I *961:B I *C 526.8 391.5 *L 0.0277 *D NOR2X1
*I *960:B I *C 534 388.5 *L 0.0216 *D NAND2X1
*I *687:Y O *C 524.4 391.5 *L 0 *D INVX2

*CAP
1 *961:B 0.00037797
2 *960:B 0.00028335
3 *687:Y 0.00020796
4 *153:3 0.00047919
5 *153:4 0.00047919
6 *153:5 0.00078839
7 *153:6 0.00078839
8 *153:7 0.0009567
9 *153:8 0.0009567

*RES
1 *153:3 *960:B 4
2 *153:4 *153:3 0.3
3 *153:8 *153:4 4
4 *153:7 *153:8 0.24
5 *153:6 *153:7 4
6 *153:6 *153:5 0.6
7 *961:B *153:5 4
8 *687:Y *961:B 0.24
*END

*D_NET *154 0.0012731

*CONN
*I *1008:B I *C 529.2 511.5 *L 0.033 *D OAI21X1
*I *688:Y O *C 522 511.5 *L 0 *D INVX2

*CAP
1 *688:Y 0.00020796
2 *154:2 0.00020796
3 *154:3 0.00042859
4 *154:4 0.00042859

*RES
1 *154:4 *1008:B 4
2 *154:3 *154:4 0.48
3 *688:Y *154:2 0.24
4 *154:2 *154:3 4
*END

*D_NET *155 0.0142953

*CONN
*I *967:B I *C 543.6 451.5 *L 0.0277 *D NOR2X1
*I *966:B I *C 536.4 448.5 *L 0.0216 *D NAND2X1
*I *689:Y O *C 522 478.5 *L 0 *D INVX2

*CAP
1 *967:B 0.00022962
2 *966:B 0.00103984
3 *689:Y 0.00028335
4 *155:3 0.00112866
5 *155:4 0.0007134
6 *155:5 0.00199248
7 *155:6 0.00199248
8 *155:7 0.00050503
9 *155:8 0.00050503
10 *155:9 0.00039963
11 *155:10 0.00120985
12 *155:11 0.00179867
13 *155:12 0.00175439
14 *155:13 0.00074289

*RES
1 *155:9 *967:B 0.24
2 *155:8 *155:9 4
3 *155:8 *155:7 0.3
4 *155:10 *966:B 1.2
5 *155:5 *155:7 4
6 *155:4 *155:10 4
7 *155:6 *155:5 0.56
8 *155:4 *155:3 0.6
9 *155:3 *155:6 4
10 *155:3 *155:13 0.6
11 *155:11 *155:13 0.24
12 *155:11 *155:12 1.8
13 *689:Y *155:12 4
*END

*D_NET *156 0.00072788

*CONN
*I *1001:B I *C 454.8 511.5 *L 0.033 *D OAI21X1
*I *690:Y O *C 459.6 511.5 *L 0 *D INVX2

*CAP
1 *1001:B 0.00036394
2 *690:Y 0.00036394

*RES
1 *1001:B *690:Y 0.42
*END

*D_NET *157 0.007769

*CONN
*I *973:B I *C 469.2 451.5 *L 0.0277 *D NOR2X1
*I *972:B I *C 476.4 448.5 *L 0.0216 *D NAND2X1
*I *691:Y O *C 452.4 451.5 *L 0 *D INVX2

*CAP
1 *973:B 0.00020796
2 *972:B 0.00028335
3 *691:Y 0.00124782
4 *157:3 0.00072819
5 *157:4 0.00072819
6 *157:5 0.00047919
7 *157:6 0.00047919
8 *157:7 0.00151245
9 *157:8 0.00105133
10 *157:9 0.00105133

*RES
1 *157:5 *972:B 4
2 *157:6 *157:5 0.3
3 *157:9 *157:6 4
4 *157:8 *157:9 0.32
5 *157:4 *157:8 4
6 *157:4 *157:3 0.6
7 *157:7 *973:B 0.24
8 *157:7 *157:3 4
9 *691:Y *157:7 1.44
*END

*D_NET *158 0.00678288

*CONN
*I *987:B I *C 390 418.5 *L 0.0277 *D NOR2X1
*I *985:B I *C 397.2 421.5 *L 0.0216 *D NAND2X1
*I *692:Y O *C 368.4 418.5 *L 0 *D INVX2

*CAP
1 *987:B 0.00028335
2 *985:B 0.00028335
3 *692:Y 0.00145578
4 *158:3 0.00162579
5 *158:4 0.0005986
6 *158:5 0.00112814
7 *158:6 0.00094037
8 *158:7 0.0004675

*RES
1 *158:7 *985:B 4
2 *158:6 *158:7 0.3
3 *158:5 *987:B 4
4 *158:5 *158:6 0.72
5 *158:4 *158:5 0.48
6 *158:3 *158:4 4
7 *692:Y *158:3 1.68
*END

*D_NET *159 0.0620393

*CONN
*I *1051:D I *C 344.4 415.5 *L 0.0332 *D AOI22X1
*I *1040:C I *C 452.4 331.5 *L 0.033 *D AOI22X1
*I *1021:D I *C 457.2 355.5 *L 0.0332 *D AOI22X1
*I *1014:D I *C 450 415.5 *L 0.0332 *D AOI22X1
*I *1007:C I *C 430.8 418.5 *L 0.033 *D AOI22X1
*I *995:D I *C 332.4 415.5 *L 0.0332 *D AOI22X1
*I *693:Y O *C 342 391.5 *L 0 *D INVX2

*CAP
1 *1051:D 0.00028335
2 *1040:C 0.00017207
3 *1021:D 0.00057956
4 *1014:D 0.00018198
5 *1007:C 0.00123482
6 *995:D 0.00028335
7 *693:Y 0.0006561
8 *159:7 0.00285921
9 *159:8 0.00260064
10 *159:9 0.00047297
11 *159:10 0.00051725
12 *159:11 0.00082611
13 *159:12 0.0014843
14 *159:13 0.00158525
15 *159:14 0.00163842
16 *159:15 0.00163842
17 *159:16 0.0032805
18 *159:17 0.00504058
19 *159:18 0.00208771
20 *159:19 0.00074957
21 *159:20 0.00034208
22 *159:21 0.00089259
23 *159:22 0.00082395
24 *159:23 0.00292934
25 *159:24 0.00297362
26 *159:25 0.00693961
27 *159:26 0.00601833
28 *159:27 0.00085464
29 *159:28 0.00044166
30 *159:29 0.00044166
31 *159:30 0.00286927
32 *159:31 0.00286927
33 *159:32 0.00183203
34 *159:33 0.0003843
35 *159:34 0.00140483
36 *159:35 0.0003843
37 *159:16 *135:5 7.673e-05
38 *159:17 *135:3 7.673e-05
39 *159:17 *135:5 0.00053714
40 *159:18 *135:3 0.00053714
41 *1021:D *135:4 6.139e-05
42 *159:19 *669:Y 6.139e-05
43 *1040:C *135:2 5.755e-05
44 *159:20 *931:A 5.755e-05

*RES
1 *159:11 *693:Y 0.69
2 *159:8 *159:11 4
3 *159:33 *995:D 4
4 *159:8 *159:7 2.4
5 *159:33 *159:7 0.24
6 *159:7 *159:10 0.24
7 *159:10 *159:9 0.3
8 *159:29 *1051:D 4
9 *159:27 *159:9 4
10 *159:29 *159:28 0.3
11 *159:27 *159:26 0.24
12 *159:26 *159:28 4
13 *159:25 *159:32 0.466667
14 *159:26 *159:25 1.85333
15 *159:35 *159:32 4
16 *159:34 *1007:C 1.425
17 *159:35 *159:13 0.24
18 *159:13 *159:34 4
19 *159:13 *159:12 1.2
20 *159:31 *159:12 4
21 *159:31 *159:30 0.8
22 *159:14 *159:30 4
23 *159:15 *159:14 1.5
24 *159:22 *159:15 4
25 *159:22 *159:21 0.72
26 *159:21 *1014:D 0.21
27 *159:23 *159:21 4
28 *159:24 *159:23 2.7
29 *159:19 *1021:D 0.705
30 *159:24 *159:16 0.24
31 *159:17 *159:19 4
32 *159:17 *159:16 3.3
33 *159:18 *159:17 2.4
34 *159:20 *159:18 4
35 *159:20 *1040:C 0.24
*END

*D_NET *160 0.0154287

*CONN
*I *1024:A I *C 411.6 175.5 *L 0.0323 *D OAI21X1
*I *942:B I *C 409.2 235.5 *L 0.0637 *D XOR2X1
*I *694:Y O *C 404.4 211.5 *L 0 *D INVX2

*CAP
1 *1024:A 0.00028335
2 *942:B 0.00028335
3 *694:Y 0.00020796
4 *160:3 0.00446359
5 *160:4 0.00441688
6 *160:5 0.00037797
7 *160:6 0.00075402
8 *160:7 0.00080073
9 *160:8 0.00205215
10 *160:9 0.00178872

*RES
1 *694:Y *160:5 0.24
2 *160:6 *160:5 4
3 *160:6 *160:7 0.6
4 *160:9 *942:B 4
5 *160:4 *1024:A 4
6 *160:7 *160:8 0.24
7 *160:8 *160:9 1.8
8 *160:4 *160:3 4.2
9 *160:8 *160:3 0.24
*END

*D_NET *161 0.0285202

*CONN
*I *1031:B I *C 342 238.5 *L 0.033 *D OAI21X1
*I *952:A I *C 358.8 334.5 *L 0.0536 *D XOR2X1
*I *695:Y O *C 337.2 238.5 *L 0 *D INVX2

*CAP
1 *1031:B 0.00028335
2 *952:A 0.00028335
3 *695:Y 0.00019498
4 *161:3 0.0019996
5 *161:4 0.00250038
6 *161:5 0.00078413
7 *161:6 0.00073671
8 *161:7 0.00073671
9 *161:8 0.0062413
10 *161:9 0.0062413
11 *161:10 0.00117265
12 *161:11 0.00117265
13 *161:12 0.00036499
14 *161:13 0.00195813
15 *161:14 0.00195813
16 *161:14 *343:6 2.513e-05
17 *161:13 *343:7 2.513e-05
18 *161:8 *343:4 0.00092081
19 *161:9 *343:5 0.00092081

*RES
1 *161:8 *952:A 4
2 *161:9 *161:8 7.2
3 *161:14 *161:9 4
4 *161:13 *161:14 0.56
5 *161:5 *1031:B 4
6 *161:3 *161:13 4
7 *161:5 *161:4 0.6
8 *161:4 *161:3 1.8
9 *161:10 *161:4 4
10 *161:11 *161:10 0.24
11 *161:6 *161:11 4
12 *161:7 *161:6 0.6
13 *161:12 *695:Y 0.225
14 *161:12 *161:7 4
*END

*D_NET *162 0.00762304

*CONN
*I *1035:C I *C 318 328.5 *L 0.0216 *D OAI21X1
*I *696:Y O *C 320.4 358.5 *L 0 *D INVX2

*CAP
1 *1035:C 0.00028335
2 *696:Y 0.00028335
3 *162:2 0.00205579
4 *162:3 0.00210007
5 *162:4 0.00083519
6 *162:5 0.00079091
7 *162:5 *324:9 2.331e-05
8 *162:4 *324:10 2.331e-05
9 *162:3 *324:9 0.00061388
10 *162:2 *324:10 0.00061388

*RES
1 *162:5 *696:Y 4
2 *162:4 *162:5 0.6
3 *162:3 *162:4 0.24
4 *162:2 *1035:C 4
5 *162:2 *162:3 2.4
*END

*D_NET *163 0.00330902

*CONN
*I *1055:C I *C 272.4 445.5 *L 0.0272 *D NAND3X1
*I *697:Y O *C 265.2 451.5 *L 0 *D INVX2

*CAP
1 *1055:C 0.00043298
2 *697:Y 0.00028335
3 *163:2 0.00060299
4 *163:3 0.00082484
5 *163:4 0.00078103
6 *163:5 0.00038383

*RES
1 *163:2 *1055:C 0.465
2 *163:5 *163:2 4
3 *163:3 *163:5 0.24
4 *163:3 *163:4 0.6
5 *697:Y *163:4 4
*END

*D_NET *164 0.112069

*CONN
*I *1043:B I *C 373.2 475.5 *L 0.0637 *D XNOR2X1
*I *1038:B I *C 534 295.5 *L 0.0637 *D XNOR2X1
*I *1019:B I *C 534 415.5 *L 0.0637 *D XNOR2X1
*I *1012:B I *C 514.8 475.5 *L 0.0637 *D XNOR2X1
*I *1005:B I *C 459.6 475.5 *L 0.0637 *D XNOR2X1
*I *998:B I *C 375.6 475.5 *L 0.0637 *D XOR2X1
*I *698:Y O *C 361.2 298.5 *L 0 *D INVX2

*CAP
1 *1043:B 0.00020796
2 *1038:B 0.00022313
3 *1019:B 0.00047601
4 *1012:B 0.00028335
5 *1005:B 0.00028335
6 *998:B 0.00037797
7 *698:Y 0.00020796
8 *164:7 0.00140676
9 *164:8 0.00140676
10 *164:9 0.00195755
11 *164:10 0.00204604
12 *164:11 0.000765
13 *164:12 0.000765
14 *164:13 0.0050644
15 *164:14 0.014349
16 *164:15 0.00961223
17 *164:16 0.00064602
18 *164:17 0.00338048
19 *164:18 0.0010625
20 *164:19 0.00039314
21 *164:20 0.00264561
22 *164:21 0.0115623
23 *164:22 0.0114738
24 *164:23 0.00104582
25 *164:24 0.00309442
26 *164:25 0.00232048
27 *164:26 0.00239097
28 *164:27 0.00741811
29 *164:28 0.0007349
30 *164:29 0.0007349
31 *164:30 0.0108437
32 *164:31 0.00824966
33 *164:32 0.00037797
34 *164:33 0.00068993
35 *164:34 0.00068993
36 *164:35 0.002882

*RES
1 *1043:B *998:B 0.24
2 *164:34 *998:B 4
3 *164:11 *1005:B 4
4 *164:33 *164:34 0.6
5 *164:12 *164:11 0.6
6 *164:35 *164:33 4
7 *164:28 *1012:B 4
8 *164:30 *164:12 4
9 *164:31 *164:30 1.98667
10 *164:35 *164:31 0.813333
11 *164:29 *164:28 0.6
12 *164:30 *164:27 1.84
13 *164:27 *164:29 4
14 *164:27 *164:26 0.8
15 *1019:B *164:16 0.48
16 *164:13 *164:26 4
17 *164:14 *164:16 4
18 *164:14 *164:13 5.4
19 *164:15 *164:14 9.3
20 *1038:B *164:19 0.225
21 *164:20 *164:15 0.24
22 *164:17 *164:19 4
23 *164:17 *164:20 2.7
24 *164:18 *164:17 0.9
25 *164:21 *164:18 4
26 *164:22 *164:21 4.24
27 *164:23 *164:22 0.05
28 *164:24 *164:23 0.306667
29 *164:25 *164:24 0.653333
30 *164:25 *164:9 0.05
31 *164:10 *164:9 0.56
32 *164:8 *164:10 4
33 *164:8 *164:7 1.2
34 *164:32 *164:7 4
35 *698:Y *164:32 0.24
*END

*D_NET *165 0.0906368

*CONN
*I *983:B I *C 411.6 391.5 *L 0.033 *D OAI21X1
*I *977:B I *C 409.2 418.5 *L 0.033 *D OAI21X1
*I *970:B I *C 466.8 418.5 *L 0.033 *D OAI21X1
*I *964:B I *C 505.2 451.5 *L 0.033 *D OAI21X1
*I *958:B I *C 517.2 331.5 *L 0.033 *D OAI21X1
*I *944:B I *C 512.4 238.5 *L 0.033 *D OAI21X1
*I *699:Y O *C 411.6 331.5 *L 0 *D INVX2

*CAP
1 *983:B 0.00020796
2 *977:B 0.00028335
3 *970:B 0.00028335
4 *964:B 0.00028335
5 *958:B 0.00046533
6 *944:B 0.00028335
7 *699:Y 0.00020796
8 *165:7 0.00386443
9 *165:8 0.00609631
10 *165:9 0.00251523
11 *165:10 0.0066172
12 *165:11 0.00635862
13 *165:12 0.00583914
14 *165:13 0.00588342
15 *165:14 0.00289001
16 *165:15 0.00314859
17 *165:16 0.00692426
18 *165:17 0.00554042
19 *165:18 0.0004675
20 *165:19 0.0004675
21 *165:20 0.00183084
22 *165:21 0.00183084
23 *165:22 0.00367385
24 *165:23 0.009772
25 *165:24 0.0064909
26 *165:25 0.00048169
27 *165:26 0.00043741
28 *165:27 0.00173541
29 *165:28 0.00037797
30 *165:29 0.00035199
31 *165:30 0.00037797
32 *165:31 0.00035157
33 *165:31 *371:5 7.673e-05
34 *165:27 *371:6 7.673e-05
35 *165:27 *371:5 0.00061388
36 *165:16 *371:6 0.00061388
37 *165:16 *371:5 0.00084408
38 *165:17 *371:6 0.00084408
39 *165:31 *371:3 7.673e-05
40 *165:27 *371:4 7.673e-05
41 *165:27 *371:3 0.00053714
42 *165:16 *371:4 0.00053714

*RES
1 *165:28 *699:Y 0.24
2 *165:17 *165:28 4
3 *165:30 *983:B 0.24
4 *165:17 *165:16 6
5 *165:16 *165:30 4
6 *165:31 *977:B 4
7 *165:16 *165:27 2.4
8 *165:27 *165:31 0.3
9 *165:18 *970:B 4
10 *165:24 *165:27 4
11 *165:19 *165:18 0.3
12 *165:24 *165:23 1.92
13 *165:23 *165:19 4
14 *165:23 *165:22 1.28
15 *165:7 *964:B 4
16 *165:8 *165:22 4
17 *165:8 *165:7 3.6
18 *165:9 *165:8 2.1
19 *165:21 *165:9 4
20 *165:21 *165:20 0.56
21 *165:12 *165:20 4
22 *165:13 *165:12 6
23 *165:25 *165:13 0.24
24 *165:26 *165:25 0.3
25 *165:29 *165:26 4
26 *958:B *165:29 0.21
27 *165:14 *958:B 4
28 *165:15 *165:14 3
29 *165:10 *165:15 0.48
30 *165:11 *944:B 4
31 *165:11 *165:10 6.3
*END

*D_NET *166 0.103767

*CONN
*I *984:C I *C 406.8 391.5 *L 0.033 *D AOI22X1
*I *978:C I *C 418.8 451.5 *L 0.033 *D AOI22X1
*I *971:C I *C 483.6 418.5 *L 0.033 *D AOI22X1
*I *965:C I *C 510 451.5 *L 0.033 *D AOI22X1
*I *959:C I *C 505.2 358.5 *L 0.033 *D AOI22X1
*I *955:C I *C 440.4 268.5 *L 0.0216 *D OAI21X1
*I *945:C I *C 502.8 271.5 *L 0.033 *D AOI22X1
*I *700:Y O *C 433.2 298.5 *L 0 *D INVX2

*CAP
1 *984:C 0.00028335
2 *978:C 0.00019498
3 *971:C 0.00151817
4 *965:C 0.00020796
5 *959:C 0.00056118
6 *955:C 0.00028335
7 *945:C 0.00064556
8 *700:Y 0.00156292
9 *166:8 0.0069373
10 *166:9 0.0126825
11 *166:10 0.00923974
12 *166:11 0.0005259
13 *166:12 0.00047919
14 *166:13 0.00249583
15 *166:14 0.0005259
16 *166:15 0.00229999
17 *166:16 0.00047184
18 *166:17 0.00047184
19 *166:18 0.00050503
20 *166:19 0.00050503
21 *166:20 0.00081557
22 *166:21 0.00223641
23 *166:22 0.00715744
24 *166:23 0.00520438
25 *166:24 0.00555411
26 *166:25 0.00555411
27 *166:26 0.00071171
28 *166:27 0.00128696
29 *166:28 0.00126596
30 *166:29 0.00126596
31 *166:30 0.00045588
32 *166:31 0.00045588
33 *166:32 0.00073119
34 *166:33 0.0034945
35 *166:34 0.00108089
36 *166:35 0.00108089
37 *166:36 0.00629513
38 *166:37 0.00629513
39 *166:38 0.00043575
40 *166:39 0.00036499
41 *166:40 0.00140483
42 *166:41 0.00037797
43 *166:42 0.00128237
44 *166:43 0.00128237
45 *166:28 *408:5 0.00049824
46 *166:29 *408:6 0.00049824
47 *166:9 *408:2 7.673e-05
48 *166:10 *408:3 7.673e-05
49 *166:30 *408:8 2.331e-05
50 *166:31 *408:7 2.331e-05
51 *166:21 *129:8 0.00061388
52 *166:22 *129:7 0.00061388
53 *166:22 *129:8 7.673e-05
54 *166:23 *129:7 7.673e-05
55 *166:22 *129:7 0.00046041
56 *166:23 *129:6 0.00046041
57 *166:22 *379:2 0.00076735
58 *166:23 *379:3 0.00076735
59 *959:C *959:D 0.00012278
60 *166:32 *379:8 0.00012278

*RES
1 *166:41 *965:C 0.24
2 *166:34 *166:41 4
3 *166:35 *166:34 0.9
4 *166:43 *166:35 4
5 *166:20 *945:C 0.72
6 *166:32 *959:C 0.72
7 *166:42 *166:43 0.32
8 *166:19 *166:20 4
9 *166:23 *166:32 4
10 *166:21 *166:42 4
11 *166:12 *955:C 4
12 *166:19 *166:18 0.3
13 *166:23 *166:22 6
14 *166:22 *166:21 2.4
15 *166:12 *166:11 0.3
16 *166:24 *166:18 4
17 *166:40 *166:22 4
18 *166:14 *166:11 0.24
19 *166:25 *166:24 1.92
20 *971:C *166:40 1.425
21 *166:14 *166:13 0.3
22 *166:13 *166:25 4
23 *166:13 *166:15 2.1
24 *166:17 *971:C 4
25 *166:38 *166:15 4
26 *166:17 *166:16 0.3
27 *166:30 *984:C 4
28 *166:38 *166:26 0.3
29 *166:36 *166:16 4
30 *978:C *166:39 0.225
31 *166:31 *166:30 0.3
32 *700:Y *166:26 0.48
33 *166:37 *166:36 2.08
34 *166:33 *166:39 4
35 *166:29 *166:31 4
36 *166:8 *166:37 4
37 *166:8 *166:33 3
38 *166:29 *166:28 0.48
39 *166:27 *700:Y 1.185
40 *166:9 *166:8 3.3
41 *166:9 *166:28 4
42 *166:10 *166:27 4
43 *166:10 *166:9 9
*END

*D_NET *167 0.111831

*CONN
*I *1243:Y O *C 404.4 358.5 *L 0 *D INVX2
*I *988:A I *C 406.8 337.5 *L 0.027 *D NOR2X1
*I *986:B I *C 411.6 301.5 *L 0.0216 *D NAND2X1
*I *984:B I *C 399.6 394.5 *L 0.0325 *D AOI22X1
*I *978:B I *C 411.6 454.5 *L 0.0325 *D AOI22X1
*I *971:B I *C 476.4 415.5 *L 0.0325 *D AOI22X1
*I *965:B I *C 517.2 454.5 *L 0.0325 *D AOI22X1
*I *959:B I *C 512.4 355.5 *L 0.0325 *D AOI22X1
*I *954:C I *C 445.2 304.5 *L 0.0272 *D NAND3X1
*I *945:B I *C 510 274.5 *L 0.0325 *D AOI22X1

*CAP
1 *1243:Y 0.00067666
2 *988:A 0.00028335
3 *986:B 0.00028335
4 *984:B 0.00028335
5 *978:B 0.00020796
6 *971:B 0.00028335
7 *965:B 0.00028335
8 *959:B 0.00028335
9 *954:C 0.00087706
10 *945:B 0.00028335
11 *167:10 0.0018972
12 *167:11 0.00499758
13 *167:12 0.0033956
14 *167:13 0.00330203
15 *167:14 0.00050503
16 *167:15 0.00164636
17 *167:16 0.00211923
18 *167:17 0.00047297
19 *167:18 0.00047297
20 *167:19 0.00071332
21 *167:20 0.00071332
22 *167:21 0.00598838
23 *167:22 0.00744939
24 *167:23 0.00254194
25 *167:24 0.00342801
26 *167:25 0.00104707
27 *167:26 0.00236281
28 *167:27 0.00236281
29 *167:28 0.00371996
30 *167:29 0.00417332
31 *167:30 0.00073671
32 *167:31 0.00107564
33 *167:32 0.00107564
34 *167:33 0.00169258
35 *167:34 0.00216007
36 *167:35 0.00079512
37 *167:36 0.00043297
38 *167:37 0.00020967
39 *167:38 0.00129523
40 *167:39 0.0122971
41 *167:40 0.00910105
42 *167:41 0.00358879
43 *167:42 0.00543236
44 *167:43 0.00547664
45 *167:44 0.0003843
46 *167:45 0.00037797
47 *167:46 0.00368422
48 *167:47 0.00342564
49 *167:21 *377:4 7.673e-05
50 *167:22 *377:3 7.673e-05
51 *167:22 *377:4 0.00069061
52 *167:23 *377:3 0.00069061

*RES
1 *167:42 *945:B 4
2 *167:42 *167:43 5.1
3 *167:47 *965:B 4
4 *167:43 *167:23 0.24
5 *167:46 *167:47 3.6
6 *167:22 *959:B 4
7 *167:23 *167:22 3
8 *167:38 *167:46 0.48
9 *167:19 *971:B 4
10 *167:22 *167:21 5.4
11 *167:21 *167:38 0.9
12 *167:20 *167:19 0.6
13 *167:41 *167:21 4
14 *167:45 *978:B 0.24
15 *167:39 *167:20 4
16 *167:39 *167:41 1.2
17 *167:15 *167:45 4
18 *167:40 *167:39 2.48
19 *167:16 *167:15 1.5
20 *167:14 *167:40 4
21 *167:12 *167:16 0.72
22 *167:14 *167:13 0.3
23 *167:13 *167:12 2.7
24 *167:10 *167:13 0.24
25 *167:11 *984:B 4
26 *167:11 *167:10 1.8
27 *167:24 *167:11 3.6
28 *167:37 *167:24 4
29 *167:36 *1243:Y 0.425
30 *167:37 *167:36 0.04
31 *167:44 *988:A 4
32 *167:35 *167:44 0.24
33 *167:33 *1243:Y 4
34 *167:35 *167:34 0.6
35 *167:34 *167:33 1.5
36 *167:32 *167:34 4
37 *167:25 *954:C 0.945
38 *167:32 *167:31 0.24
39 *167:18 *167:25 4
40 *167:30 *986:B 4
41 *167:28 *167:31 4
42 *167:18 *167:17 0.3
43 *167:30 *167:29 0.6
44 *167:29 *167:28 3.6
45 *167:26 *167:17 4
46 *167:27 *167:29 4
47 *167:27 *167:26 0.8
*END

*D_NET *168 0.0145761

*CONN
*I *1046:A I *C 363.6 328.5 *L 0.0269 *D NAND3X1
*I *990:B I *C 382.8 358.5 *L 0.0269 *D NAND3X1
*I *701:Y O *C 349.2 358.5 *L 0 *D INVX2

*CAP
1 *1046:A 0.00020796
2 *990:B 0.00028335
3 *701:Y 0.00103984
4 *168:3 0.00292155
5 *168:4 0.0027374
6 *168:5 0.00218616
7 *168:6 0.00218616
8 *168:7 0.00037797
9 *168:8 0.00120985
10 *168:9 0.0004675
11 *168:10 0.00047919
12 *168:11 0.00047919

*RES
1 *168:11 *990:B 4
2 *168:10 *168:11 0.3
3 *701:Y *168:8 1.2
4 *168:5 *168:10 4
5 *168:9 *168:8 4
6 *168:6 *168:5 0.72
7 *168:3 *168:9 0.3
8 *168:3 *168:6 4
9 *168:7 *1046:A 0.24
10 *168:4 *168:3 2.7
11 *168:4 *168:7 4
*END

*D_NET *169 0.0408803

*CONN
*I *893:B I *C 243.6 298.5 *L 0.0269 *D NAND3X1
*I *891:B I *C 178.8 271.5 *L 0.0269 *D NAND3X1
*I *884:B I *C 236.4 238.5 *L 0.0269 *D NAND3X1
*I *882:B I *C 178.8 298.5 *L 0.0269 *D NAND3X1
*I *702:Y O *C 231.6 298.5 *L 0 *D INVX2

*CAP
1 *893:B 0.00028335
2 *891:B 0.00028335
3 *884:B 0.00028335
4 *882:B 0.00078825
5 *702:Y 0.00040294
6 *169:5 0.00251523
7 *169:6 0.00251523
8 *169:7 0.00074659
9 *169:8 0.00074659
10 *169:9 0.00647839
11 *169:10 0.00652824
12 *169:11 0.00562377
13 *169:12 0.00562377
14 *169:13 0.00038987
15 *169:14 0.00180926
16 *169:15 0.00070087
17 *169:16 0.00037797
18 *169:17 0.00047919
19 *169:18 0.00050503
20 *169:19 0.00036499
21 *169:20 0.00067491
22 *169:21 0.00047494
23 *169:22 0.00047494
24 *169:23 0.00180926

*RES
1 *169:6 *891:B 4
2 *169:6 *169:5 2.1
3 *169:20 *169:5 4
4 *169:20 *882:B 0.57
5 *169:8 *882:B 4
6 *169:21 *893:B 4
7 *169:8 *169:7 0.6
8 *169:21 *169:22 0.3
9 *169:12 *169:7 4
10 *169:23 *169:22 4
11 *169:12 *169:11 1.68
12 *169:14 *169:23 0.48
13 *169:17 *169:11 4
14 *169:15 *169:14 4
15 *169:15 *169:17 0.3
16 *169:18 *169:15 0.3
17 *169:19 *169:18 4
18 *169:19 *702:Y 0.225
19 *702:Y *169:16 0.24
20 *169:9 *169:16 4
21 *169:10 *169:9 6
22 *169:10 *169:13 0.24
23 *884:B *169:13 4
*END

*D_NET *170 0.0260226

*CONN
*I *896:B I *C 166.8 298.5 *L 0.0269 *D NAND3X1
*I *891:A I *C 181.2 268.5 *L 0.0269 *D NAND3X1
*I *886:B I *C 183.6 238.5 *L 0.0269 *D NAND3X1
*I *882:A I *C 176.4 301.5 *L 0.0269 *D NAND3X1
*I *703:Y O *C 174 331.5 *L 0 *D INVX2

*CAP
1 *896:B 0.0005049
2 *891:A 0.00044626
3 *886:B 0.00028335
4 *882:A 0.00020796
5 *703:Y 0.00043298
6 *170:5 0.00343234
7 *170:6 0.00071286
8 *170:7 0.00047259
9 *170:8 0.00060299
10 *170:9 0.0004737
11 *170:10 0.0004737
12 *170:11 0.00047259
13 *170:12 0.00039314
14 *170:13 0.00039314
15 *170:14 0.002598
16 *170:15 0.002598
17 *170:16 0.00049585
18 *170:17 0.000446
19 *170:18 0.00338004
20 *170:19 0.00338004
21 *170:20 0.00038987
22 *170:21 0.00343234

*RES
1 *170:8 *703:Y 0.465
2 *170:15 *170:8 4
3 *896:B *170:6 0.57
4 *170:14 *170:15 2.7
5 *170:6 *170:7 0.24
6 *170:7 *170:14 4
7 *170:7 *170:10 0.24
8 *170:9 *170:10 0.3
9 *170:9 *170:11 0.24
10 *170:11 *882:A 0.24
11 *170:17 *170:11 4
12 *170:16 *170:17 0.3
13 *170:16 *170:19 0.24
14 *170:18 *170:19 3
15 *170:18 *170:20 0.24
16 *170:12 *170:20 4
17 *170:12 *891:A 0.225
18 *891:A *170:13 0.225
19 *170:21 *170:13 4
20 *170:5 *886:B 4
21 *170:5 *170:21 3
*END

*D_NET *171 0.00512942

*CONN
*I *897:C I *C 202.8 337.5 *L 0.0277 *D AOI21X1
*I *704:Y O *C 205.2 358.5 *L 0 *D INVX2

*CAP
1 *897:C 0.00028335
2 *704:Y 0.00028335
3 *171:2 0.00123174
4 *171:3 0.00127555
5 *171:4 0.00104962
6 *171:5 0.00100581

*RES
1 *171:5 *704:Y 4
2 *171:4 *171:5 0.9
3 *171:3 *171:4 0.24
4 *171:2 *171:3 1.2
5 *897:C *171:2 4
*END

*D_NET *172 0.0153719

*CONN
*I *902:A I *C 133.2 298.5 *L 0.0323 *D AOI22X1
*I *901:A I *C 150 331.5 *L 0.0323 *D AOI22X1
*I *898:A I *C 130.8 331.5 *L 0.0323 *D AOI22X1
*I *705:Y O *C 147.6 331.5 *L 0 *D INVX2

*CAP
1 *902:A 0.00028335
2 *901:A 0.00020796
3 *898:A 0.00028335
4 *705:Y 0.0006239
5 *172:4 0.00113788
6 *172:5 0.00113788
7 *172:6 0.00275138
8 *172:7 0.00206761
9 *172:8 0.00080997
10 *172:9 0.00157752
11 *172:10 0.00162133
12 *172:11 0.00058595
13 *172:12 0.0011419
14 *172:13 0.0011419

*RES
1 *172:9 *898:A 4
2 *172:7 *902:A 4
3 *172:10 *172:9 1.5
4 *172:7 *172:6 1.8
5 *172:10 *172:6 0.24
6 *172:6 *172:8 0.6
7 *172:5 *172:8 4
8 *172:5 *172:4 0.32
9 *172:12 *172:4 4
10 *172:12 *172:13 0.9
11 *172:11 *172:13 4
12 *172:11 *705:Y 0.48
13 *705:Y *901:A 0.24
*END

*D_NET *173 0.0311118

*CONN
*I *1209:B I *C 121.2 481.5 *L 0.0216 *D NAND2X1
*I *1208:B I *C 94.8 508.5 *L 0.0216 *D NAND2X1
*I *1190:B I *C 114 451.5 *L 0.0269 *D NAND3X1
*I *1060:D I *C 104.4 451.5 *L 0.0332 *D OAI22X1
*I *1056:B I *C 114 478.5 *L 0.0269 *D NAND3X1
*I *706:Y O *C 121.2 511.5 *L 0 *D INVX2

*CAP
1 *1209:B 0.00028335
2 *1208:B 0.00092197
3 *1190:B 0.00028335
4 *1060:D 0.00028335
5 *1056:B 0.00028335
6 *706:Y 0.00028335
7 *173:6 0.00541963
8 *173:7 0.00594625
9 *173:8 0.00080997
10 *173:9 0.00109198
11 *173:10 0.00138485
12 *173:11 0.00138485
13 *173:12 0.00283081
14 *173:13 0.00090575
15 *173:14 0.00298177
16 *173:15 0.00262593
17 *173:16 0.00260286
18 *173:17 0.00078839

*RES
1 *1208:B *173:9 0.96
2 *173:8 *1060:D 4
3 *173:6 *173:9 4
4 *173:8 *173:7 0.6
5 *173:7 *173:6 5.1
6 *173:11 *173:7 4
7 *173:17 *1190:B 4
8 *173:11 *173:10 0.32
9 *173:17 *173:16 0.6
10 *173:16 *173:10 4
11 *173:16 *173:15 2.1
12 *173:15 *1056:B 4
13 *173:15 *173:13 0.72
14 *173:14 *1209:B 4
15 *173:13 *173:14 0.3
16 *173:14 *173:12 3
17 *173:12 *706:Y 4
*END

*D_NET *174 0.0029112

*CONN
*I *1190:C I *C 116.4 445.5 *L 0.0272 *D NAND3X1
*I *707:Y O *C 121.2 451.5 *L 0 *D INVX2

*CAP
1 *1190:C 0.00028335
2 *707:Y 0.00028335
3 *174:2 0.00059764
4 *174:3 0.00100224
5 *174:4 0.00074462

*RES
1 *174:4 *707:Y 4
2 *174:3 *174:4 0.6
3 *174:2 *174:3 0.48
4 *1190:C *174:2 4
*END

*D_NET *175 0.0224168

*CONN
*I *1214:B I *C 68.4 478.5 *L 0.0269 *D NAND3X1
*I *1211:C I *C 78 505.5 *L 0.0272 *D NAND3X1
*I *824:D I *C 61.2 418.5 *L 0.0332 *D OAI22X1
*I *708:Y O *C 66 511.5 *L 0 *D INVX2

*CAP
1 *1214:B 0.00028335
2 *1211:C 0.00028335
3 *824:D 0.00028335
4 *708:Y 0.00019498
5 *175:4 0.0038474
6 *175:5 0.00436369
7 *175:6 0.00250323
8 *175:7 0.00102527
9 *175:8 0.00036499
10 *175:9 0.00071691
11 *175:10 0.00403943
12 *175:11 0.00451087

*RES
1 *175:10 *824:D 4
2 *175:10 *175:11 3.9
3 *175:11 *175:6 0.72
4 *708:Y *175:8 0.225
5 *175:5 *1214:B 4
6 *175:6 *175:5 2.1
7 *175:9 *175:8 4
8 *175:5 *175:4 2.7
9 *175:4 *175:9 0.6
10 *175:7 *1211:C 4
11 *175:4 *175:7 0.96
*END

*D_NET *176 0.0339406

*CONN
*I *1213:B I *C 150 481.5 *L 0.0216 *D NAND2X1
*I *1211:A I *C 82.8 508.5 *L 0.0269 *D NAND3X1
*I *1195:A I *C 152.4 457.5 *L 0.027 *D NOR2X1
*I *1061:D I *C 92.4 451.5 *L 0.0332 *D OAI22X1
*I *709:Y O *C 92.4 478.5 *L 0 *D INVX2

*CAP
1 *1213:B 0.00028335
2 *1211:A 0.00028335
3 *1195:A 0.00043465
4 *1061:D 0.00028335
5 *709:Y 0.00020796
6 *176:5 0.00189279
7 *176:6 0.00264537
8 *176:7 0.00107974
9 *176:8 0.0031957
10 *176:9 0.0031957
11 *176:10 0.00047919
12 *176:11 0.000523
13 *176:12 0.00194465
14 *176:13 0.00205915
15 *176:14 0.00044166
16 *176:15 0.00490417
17 *176:16 0.00490417
18 *176:17 0.00060466
19 *176:18 0.00038383
20 *176:19 0.00094859
21 *176:20 0.00085397
22 *176:15 *556:7 0.00119579
23 *176:16 *556:8 0.00119579

*RES
1 *176:8 *1211:A 4
2 *176:9 *176:8 3
3 *176:20 *176:9 4
4 *176:10 *1213:B 4
5 *176:20 *176:19 0.72
6 *176:19 *709:Y 0.24
7 *176:17 *1195:A 0.48
8 *176:11 *176:10 0.3
9 *176:18 *176:19 4
10 *176:14 *176:17 4
11 *176:12 *176:11 0.24
12 *176:7 *1061:D 4
13 *176:18 *176:5 0.24
14 *176:14 *176:13 0.3
15 *176:13 *176:12 1.8
16 *176:7 *176:6 0.9
17 *176:6 *176:5 1.8
18 *176:15 *176:13 4
19 *176:16 *176:6 4
20 *176:16 *176:15 1.84
*END

*D_NET *177 0.00257908

*CONN
*I *1062:D I *C 58.8 451.5 *L 0.0332 *D OAI22X1
*I *710:Y O *C 44.4 451.5 *L 0 *D INVX2

*CAP
1 *710:Y 0.00086191
2 *177:2 0.00086191
3 *177:3 0.00042763
4 *177:4 0.00042763

*RES
1 *177:4 *1062:D 4
2 *177:3 *177:4 0.48
3 *177:2 *177:3 4
4 *710:Y *177:2 0.96
*END

*D_NET *178 0.0269294

*CONN
*I *1208:A I *C 90 514.5 *L 0.0214 *D NAND2X1
*I *1202:B I *C 111.6 511.5 *L 0.0269 *D NAND3X1
*I *1063:D I *C 99.6 418.5 *L 0.0332 *D OAI22X1
*I *711:Y O *C 97.2 478.5 *L 0 *D INVX2

*CAP
1 *1208:A 0.00028335
2 *1202:B 0.00051819
3 *1063:D 0.00028335
4 *711:Y 0.00062027
5 *178:4 0.00293074
6 *178:5 0.00297455
7 *178:6 0.00329619
8 *178:7 0.00325238
9 *178:8 0.0005953
10 *178:9 0.00038383
11 *178:10 0.00153794
12 *178:11 0.00188612
13 *178:12 0.00297874
14 *178:13 0.00070162
15 *178:14 0.00095924
16 *178:15 0.0006974
17 *178:16 0.00266516
18 *178:17 0.00036499

*RES
1 *178:11 *1202:B 0.585
2 *178:13 *1208:A 4
3 *178:10 *178:11 1.44
4 *178:14 *178:13 0.6
5 *178:9 *178:10 4
6 *178:14 *178:15 0.48
7 *178:12 *178:9 0.24
8 *178:12 *178:15 0.3
9 *178:16 *178:12 2.7
10 *178:17 *178:16 4
11 *178:17 *711:Y 0.225
12 *711:Y *178:8 0.48
13 *178:7 *178:8 4
14 *178:6 *178:7 3
15 *178:5 *178:6 0.24
16 *178:4 *1063:D 4
17 *178:4 *178:5 3
*END

*D_NET *179 0.0327655

*CONN
*I *1211:B I *C 80.4 511.5 *L 0.0269 *D NAND3X1
*I *1190:A I *C 111.6 448.5 *L 0.0269 *D NAND3X1
*I *1064:D I *C 80.4 451.5 *L 0.0332 *D OAI22X1
*I *712:Y O *C 133.2 511.5 *L 0 *D INVX2

*CAP
1 *1211:B 0.00028335
2 *1190:A 0.00020796
3 *1064:D 0.00028335
4 *712:Y 0.0006239
5 *179:4 0.00572308
6 *179:5 0.00581109
7 *179:6 0.00047184
8 *179:7 0.00365755
9 *179:8 0.00365755
10 *179:9 0.00084006
11 *179:10 0.00084006
12 *179:11 0.00402118
13 *179:12 0.00402118
14 *179:13 0.00038383
15 *179:14 0.00038383
16 *179:15 0.00038383
17 *179:16 0.00079391
18 *179:17 0.00037797

*RES
1 *179:17 *1190:A 0.24
2 *179:10 *179:17 4
3 *179:10 *179:9 0.6
4 *179:16 *712:Y 0.72
5 *179:7 *179:9 4
6 *179:15 *179:16 4
7 *179:6 *1064:D 4
8 *179:8 *179:7 0.96
9 *179:14 *179:15 0.24
10 *179:6 *179:5 0.3
11 *179:5 *179:8 4
12 *179:11 *179:14 4
13 *179:4 *1211:B 4
14 *179:5 *179:4 5.7
15 *179:12 *179:11 1.36
16 *179:4 *179:13 0.24
17 *179:13 *179:12 4
*END

*D_NET *180 0.110426

*CONN
*I *1066:B I *C 162 391.5 *L 0.033 *D OAI22X1
*I *1039:B I *C 481.2 331.5 *L 0.033 *D OAI21X1
*I *1034:B I *C 325.2 331.5 *L 0.033 *D OAI21X1
*I *910:C I *C 486 274.5 *L 0.0325 *D OAI22X1
*I *713:Y O *C 382.8 271.5 *L 0 *D INVX2

*CAP
1 *1066:B 0.00028335
2 *1039:B 0.00041998
3 *1034:B 0.00041594
4 *910:C 0.00089194
5 *713:Y 0.00028335
6 *180:5 0.00328378
7 *180:6 0.00354236
8 *180:7 0.00565882
9 *180:8 0.00565882
10 *180:9 0.00322262
11 *180:10 0.00322262
12 *180:11 0.00274699
13 *180:12 0.00283596
14 *180:13 0.0009647
15 *180:14 0.00082924
16 *180:15 0.00355833
17 *180:16 0.00355833
18 *180:17 0.009628
19 *180:18 0.00967449
20 *180:19 0.00078839
21 *180:20 0.00570684
22 *180:21 0.0052018
23 *180:22 0.00458332
24 *180:23 0.0065439
25 *180:24 0.00524629
26 *180:25 0.00139417
27 *180:26 0.00107892
28 *180:27 0.00106195
29 *180:28 0.00144421
30 *180:29 0.00149344
31 *180:30 0.00339105
32 *180:31 0.00058595
33 *180:32 0.00058999
34 *180:28 0.00099649
35 *180:29 0.00099649
36 *180:30 0.00054877
37 *180:22 0.00054877
38 *180:22 0.00018013
39 *180:23 0.00018013
40 *180:23 0.00055296
41 *180:24 0.00055296
42 *180:28 *448:6 0.00079719
43 *180:29 *448:7 0.00079719
44 *180:28 *442:7 5.027e-05
45 *180:29 *442:8 5.027e-05
46 *180:30 *442:7 0.00217567
47 *180:22 *442:8 0.00217567
48 *180:22 *442:8 1.661e-05
49 *180:23 *442:9 1.661e-05

*RES
1 *180:15 *1066:B 4
2 *180:27 *910:C 0.96
3 *180:32 *1039:B 0.45
4 *180:16 *180:15 3.3
5 *180:21 *180:27 4
6 *180:19 *180:32 4
7 *180:12 *180:16 4
8 *180:21 *180:20 5.1
9 *180:20 *180:19 0.6
10 *180:12 *180:11 0.96
11 *180:28 *180:20 4
12 *180:10 *180:11 0.05
13 *180:8 *713:Y 4
14 *180:29 *180:28 0.8
15 *180:10 *180:9 0.96
16 *180:8 *180:7 5.1
17 *180:30 *180:29 0.1
18 *180:9 *180:14 0.05
19 *180:23 *180:7 4
20 *180:22 *180:30 1.74667
21 *180:23 *180:22 0.573333
22 *180:14 *180:13 0.24
23 *180:24 *180:23 1.76
24 *180:13 *180:18 0.1
25 *1034:B *180:31 0.48
26 *180:26 *180:24 4
27 *180:18 *180:17 3.28
28 *180:25 *180:31 4
29 *180:26 *180:25 0.9
30 *180:5 *180:17 4
31 *180:6 *180:25 0.48
32 *180:6 *180:5 3
*END

*D_NET *181 0.0916017

*CONN
*I *1067:B I *C 169.2 391.5 *L 0.033 *D OAI22X1
*I *1029:B I *C 382.8 331.5 *L 0.033 *D OAI21X1
*I *1020:B I *C 481.2 358.5 *L 0.033 *D OAI21X1
*I *914:C I *C 486 295.5 *L 0.0325 *D OAI22X1
*I *714:Y O *C 373.2 358.5 *L 0 *D INVX2

*CAP
1 *1067:B 0.00044597
2 *1029:B 0.00068396
3 *1020:B 0.00028335
4 *914:C 0.00041594
5 *714:Y 0.00037797
6 *181:5 0.00231109
7 *181:6 0.00231109
8 *181:7 0.00205806
9 *181:8 0.00161322
10 *181:9 0.00085397
11 *181:10 0.0161736
12 *181:11 0.01622
13 *181:12 0.00309363
14 *181:13 0.00304714
15 *181:14 0.00061598
16 *181:15 0.00117511
17 *181:16 0.00117511
18 *181:17 0.00730689
19 *181:18 0.00603461
20 *181:19 0.00072819
21 *181:20 0.00777369
22 *181:21 0.0103227
23 *181:22 0.00299788
24 *181:23 0.00058595
25 *181:24 0.00070149
26 *181:25 0.00073944
27 *181:26 0.00155563

*RES
1 *181:14 *1067:B 0.48
2 *181:15 *181:14 4
3 *181:16 *181:15 0.9
4 *181:23 *914:C 0.48
5 *181:13 *181:16 4
6 *181:18 *181:23 4
7 *181:13 *181:12 0.96
8 *181:17 *1020:B 4
9 *181:18 *181:17 6.3
10 *181:11 *181:12 0.1
11 *181:17 *181:26 1.5
12 *181:11 *181:10 6
13 *181:20 *181:26 4
14 *181:19 *181:10 4
15 *181:21 *181:20 2.70667
16 *181:22 *181:21 0.893333
17 *181:7 *181:19 0.6
18 *181:7 *181:22 4
19 *181:8 *181:7 1.5
20 *714:Y *181:8 4
21 *714:Y *181:25 0.24
22 *181:24 *181:25 0.6
23 *181:5 *181:24 4
24 *181:6 *181:5 2.1
25 *181:9 *181:6 4
26 *181:9 *1029:B 0.72
*END

*D_NET *182 0.116074

*CONN
*I *1068:B I *C 133.2 391.5 *L 0.033 *D OAI22X1
*I *1046:B I *C 366 331.5 *L 0.0269 *D NAND3X1
*I *1013:A I *C 474 394.5 *L 0.0323 *D OAI21X1
*I *918:C I *C 493.2 334.5 *L 0.0325 *D OAI22X1
*I *715:Y O *C 414 358.5 *L 0 *D INVX2

*CAP
1 *1068:B 0.00028335
2 *1046:B 0.00028335
3 *1013:A 0.00028335
4 *918:C 0.00028335
5 *715:Y 0.00028335
6 *182:5 0.00376529
7 *182:6 0.0038091
8 *182:7 0.00114186
9 *182:8 0.00160262
10 *182:9 0.00078839
11 *182:10 0.00081422
12 *182:11 0.0008585
13 *182:12 0.0178321
14 *182:13 0.0175092
15 *182:14 0.00385529
16 *182:15 0.00417818
17 *182:16 0.00559788
18 *182:17 0.0041275
19 *182:18 0.00080881
20 *182:19 0.000765
21 *182:20 0.00452543
22 *182:21 0.00665395
23 *182:22 0.00050503
24 *182:23 0.00050503
25 *182:24 0.0018329
26 *182:25 0.00178862
27 *182:26 0.00460076
28 *182:27 0.00464504
29 *182:28 0.00191924
30 *182:29 0.00241187
31 *182:30 0.00162413
32 *182:31 0.00751573
33 *182:32 0.00628435
34 *182:30 *431:2 0.00029895
35 *182:31 *431:3 0.00029895
36 *182:31 *431:2 0.00089684
37 *182:32 *431:3 0.00089684

*RES
1 *182:25 *918:C 4
2 *182:5 *1068:B 4
3 *182:25 *182:24 1.8
4 *182:6 *182:5 3.9
5 *182:27 *182:24 0.24
6 *182:6 *182:18 0.24
7 *182:23 *1013:A 4
8 *182:27 *182:26 4.5
9 *182:19 *182:18 0.6
10 *182:23 *182:22 0.3
11 *182:30 *182:26 4
12 *182:13 *182:19 4
13 *182:31 *182:22 4
14 *182:31 *182:30 0.56
15 *182:13 *182:12 6.24
16 *182:32 *182:31 2
17 *182:12 *182:15 0.2
18 *182:20 *182:32 4
19 *182:15 *182:14 1.36
20 *182:21 *715:Y 4
21 *182:21 *182:20 3.9
22 *182:10 *182:14 4
23 *182:29 *182:21 2.1
24 *182:11 *182:10 0.6
25 *182:28 *182:29 4
26 *182:11 *182:7 0.24
27 *182:16 *182:28 0.466667
28 *182:17 *182:16 1.13333
29 *182:8 *182:7 0.9
30 *182:8 *182:17 4
31 *182:9 *1046:B 4
32 *182:9 *182:8 0.6
*END

*D_NET *183 0.118596

*CONN
*I *1069:B I *C 162 418.5 *L 0.033 *D OAI22X1
*I *1006:B I *C 433.2 478.5 *L 0.033 *D OAI21X1
*I *989:C I *C 370.8 298.5 *L 0.0387 *D NOR3X1
*I *922:C I *C 457.2 295.5 *L 0.0325 *D OAI22X1
*I *716:Y O *C 368.4 391.5 *L 0 *D INVX2

*CAP
1 *1069:B 0.00028335
2 *1006:B 0.00068208
3 *989:C 0.00028335
4 *922:C 0.00019498
5 *716:Y 0.00065393
6 *183:5 0.00463364
7 *183:6 0.0027572
8 *183:7 0.00184517
9 *183:8 0.00184517
10 *183:9 0.00593446
11 *183:10 0.00602343
12 *183:11 0.0129072
13 *183:12 0.0093481
14 *183:13 0.00679341
15 *183:14 0.00062517
16 *183:15 0.00062517
17 *183:16 0.0163232
18 *183:17 0.0092523
19 *183:18 0.0073985
20 *183:19 0.0004675
21 *183:20 0.0004675
22 *183:21 0.00507079
23 *183:22 0.00313824
24 *183:23 0.00115918
25 *183:24 0.0011149
26 *183:25 0.00155412
27 *183:26 0.00155412
28 *183:27 0.00082394
29 *183:28 0.00038673
30 *183:29 0.00038673
31 *183:30 0.00036499
32 *183:31 0.00337942
33 *183:32 0.00085209
34 *183:16 *140:3 0.00061388
35 *183:17 *140:2 0.00061388
36 *183:18 *185:20 7.673e-05
37 *183:16 *185:21 7.673e-05
38 *183:11 *185:12 0.00298946
39 *183:12 *185:13 0.00298946
40 *183:14 *185:12 0.00029895
41 *183:15 *185:13 0.00029895
42 *183:9 *185:12 7.54e-05
43 *183:10 *185:13 7.54e-05
44 *183:9 *185:14 0.00040215
45 *183:10 *185:15 0.00040215
46 *183:9 *185:8 0.00027648
47 *183:10 *185:9 0.00027648

*RES
1 *183:7 *1069:B 4
2 *183:8 *183:7 1.5
3 *183:10 *183:8 4
4 *183:10 *183:9 2.4
5 *183:27 *716:Y 0.72
6 *183:9 *183:15 0.05
7 *183:26 *183:27 4
8 *183:15 *183:14 0.24
9 *183:26 *183:25 1.5
10 *183:14 *183:12 0.05
11 *183:11 *183:25 4
12 *183:12 *183:11 4
13 *183:32 *1006:B 0.72
14 *183:30 *922:C 0.225
15 *183:13 *183:31 0.866667
16 *183:11 *183:13 1.29333
17 *183:18 *183:32 4
18 *183:28 *989:C 4
19 *183:20 *183:30 4
20 *183:16 *183:31 4
21 *183:16 *183:18 7.2
22 *183:28 *183:29 0.24
23 *183:20 *183:19 0.3
24 *183:17 *183:16 9.9
25 *183:6 *183:29 4
26 *183:22 *183:19 4
27 *183:23 *183:17 0.24
28 *183:5 *183:21 0.786667
29 *183:6 *183:5 0.893333
30 *183:21 *183:22 1.04
31 *183:24 *183:23 0.9
32 *183:24 *183:21 4
*END

*D_NET *184 0.0948771

*CONN
*I *1070:B I *C 140.4 418.5 *L 0.033 *D OAI22X1
*I *1050:B I *C 342 478.5 *L 0.033 *D OAI21X1
*I *926:C I *C 438 334.5 *L 0.0325 *D OAI22X1
*I *717:Y O *C 344.4 451.5 *L 0 *D INVX2

*CAP
1 *1070:B 0.00041594
2 *1050:B 0.00028335
3 *926:C 0.00028335
4 *717:Y 0.00028335
5 *184:4 0.00260033
6 *184:5 0.0037342
7 *184:6 0.00169389
8 *184:7 0.00169389
9 *184:8 0.00514537
10 *184:9 0.00509888
11 *184:10 0.0179817
12 *184:11 0.0135099
13 *184:12 0.0014615
14 *184:13 0.0029465
15 *184:14 0.00299078
16 *184:15 0.00807654
17 *184:16 0.00760367
18 *184:17 0.00548407
19 *184:18 0.00049028
20 *184:19 0.00091887
21 *184:20 0.00156475
22 *184:21 0.00161398
23 *184:22 0.00107111
24 *184:23 0.00058595
25 *184:24 0.0003843
26 *184:20 0.00017594
27 *184:21 0.00017594
28 *184:22 0.00048164
29 *184:17 0.00048164
30 *184:17 0.00220888
31 *184:10 0.00220888
32 *184:4 0.00015347
33 *184:5 0.00015347
34 *184:4 7.673e-05
35 *184:5 7.673e-05
36 *184:5 0.00038367
37 *184:12 0.00038367

*RES
1 *1070:B *184:23 0.48
2 *184:7 *184:23 4
3 *184:24 *1050:B 4
4 *184:7 *184:6 1.5
5 *184:24 *184:4 0.24
6 *184:9 *184:6 4
7 *184:5 *717:Y 4
8 *184:5 *184:4 2.7
9 *184:9 *184:8 1.84
10 *184:12 *184:5 1.5
11 *184:8 *184:11 0.1
12 *184:10 *184:12 4
13 *184:11 *184:10 4.8
14 *184:17 *184:22 0.386667
15 *184:10 *184:17 1.85333
16 *184:22 *184:21 0.1
17 *184:21 *184:20 0.56
18 *184:13 *184:20 4
19 *184:14 *184:13 2.7
20 *184:14 *184:18 0.24
21 *184:19 *184:18 0.3
22 *184:19 *184:15 0.72
23 *184:16 *184:15 7.5
24 *926:C *184:16 4
*END

*D_NET *185 0.106985

*CONN
*I *1071:B I *C 128.4 418.5 *L 0.033 *D OAI22X1
*I *1048:B I *C 313.2 451.5 *L 0.0277 *D NOR2X1
*I *994:A I *C 332.4 454.5 *L 0.0323 *D OAI21X1
*I *931:C I *C 440.4 334.5 *L 0.0325 *D OAI22X1
*I *718:Y O *C 435.6 451.5 *L 0 *D INVX2

*CAP
1 *1071:B 0.00028335
2 *1048:B 0.00052251
3 *994:A 0.00173897
4 *931:C 0.00028335
5 *718:Y 0.00185874
6 *185:5 0.00406032
7 *185:6 0.00374005
8 *185:7 0.000446
9 *185:8 0.00562853
10 *185:9 0.0057175
11 *185:10 0.00107173
12 *185:11 0.00107173
13 *185:12 0.00663071
14 *185:13 0.00654174
15 *185:14 0.00318337
16 *185:15 0.00318337
17 *185:16 0.00939009
18 *185:17 0.00757226
19 *185:18 0.00962115
20 *185:19 0.00987973
21 *185:20 0.0004283
22 *185:21 0.0004283
23 *185:22 0.00103453
24 *185:23 0.00077595
25 *185:24 0.00226669
26 *185:25 0.00197813
27 *185:26 0.0003843
28 *185:27 0.00119687
29 *185:28 0.00100189
30 *185:24 *141:11 8.304e-05
31 *185:16 *141:12 8.304e-05
32 *185:16 *141:12 0.00031555
33 *185:17 *141:7 0.00031555
34 *185:16 *141:7 0.00109614
35 *185:17 *141:8 0.00109614
36 *185:18 0.00191836
37 *185:19 0.00191836
38 *185:20 *183:18 7.673e-05
39 *185:21 *183:16 7.673e-05
40 *185:12 *183:11 0.00298946
41 *185:13 *183:12 0.00298946
42 *185:12 *183:14 0.00029895
43 *185:13 *183:15 0.00029895
44 *185:12 *183:9 7.54e-05
45 *185:13 *183:10 7.54e-05
46 *185:14 *183:9 0.00040215
47 *185:15 *183:10 0.00040215
48 *185:8 *183:9 0.00027648
49 *185:9 *183:10 0.00027648

*RES
1 *185:10 *1071:B 4
2 *185:11 *185:10 0.9
3 *185:9 *185:11 4
4 *185:9 *185:8 2
5 *185:15 *185:8 0.05
6 *185:15 *185:14 1.28
7 *185:25 *994:A 1.905
8 *185:14 *185:13 0.05
9 *1048:B *185:25 0.27
10 *185:13 *185:12 2.88
11 *185:6 *185:12 4
12 *185:7 *1048:B 4
13 *185:6 *185:5 3.9
14 *185:5 *185:7 0.3
15 *185:5 *185:26 0.24
16 *185:17 *185:26 4
17 *185:16 *185:24 0.786667
18 *185:17 *185:16 2.81333
19 *185:21 *185:24 4
20 *185:21 *185:20 0.3
21 *185:27 *185:20 4
22 *185:27 *718:Y 1.185
23 *718:Y *185:28 0.96
24 *185:18 *185:28 4
25 *185:19 *185:18 11.1
26 *185:22 *185:19 0.48
27 *185:23 *185:22 0.6
28 *931:C *185:23 4
*END

*D_NET *186 0.0289697

*CONN
*I *1072:B I *C 142.8 451.5 *L 0.033 *D OAI22X1
*I *719:Y O *C 286.8 451.5 *L 0 *D INVX2

*CAP
1 *1072:B 0.00083759
2 *719:Y 0.00086192
3 *186:2 0.00043865
4 *186:3 0.00043865
5 *186:4 0.00103193
6 *186:5 0.00044091
7 *186:6 0.00044091
8 *186:7 0.0105042
9 *186:8 0.0105042
10 *186:9 0.0010076
11 *186:7 0.00118133
12 *186:8 0.00118133
13 *186:7 5.027e-05
14 *186:8 5.027e-05

*RES
1 *186:4 *719:Y 0.96
2 *186:2 *186:4 4
3 *186:3 *186:2 0.3
4 *186:7 *186:3 4
5 *186:8 *186:7 4.16
6 *186:6 *186:8 4
7 *186:6 *186:5 0.3
8 *186:9 *186:5 4
9 *1072:B *186:9 0.945
*END

*D_NET *187 0.0371058

*CONN
*I *1073:B I *C 145.2 391.5 *L 0.033 *D OAI22X1
*I *720:Y O *C 315.6 391.5 *L 0 *D INVX2

*CAP
1 *1073:B 0.00059255
2 *720:Y 0.00148582
3 *187:2 0.0129111
4 *187:3 0.0129111
5 *187:4 0.00076256
6 *187:5 0.0004283
7 *187:6 0.0004283
8 *187:7 0.00165583
9 *187:8 0.00043544
10 *187:9 0.00043544
11 *187:2 *596:21 0.00099649
12 *187:3 *596:22 0.00099649
13 *187:6 *596:26 7.673e-05
14 *187:5 *596:27 7.673e-05
15 *187:4 *1066:C 6.139e-05
16 *1073:B *596:28 6.139e-05
17 *187:2 *213:13 0.00139508
18 *187:3 *213:12 0.00139508

*RES
1 *187:7 *720:Y 1.68
2 *187:9 *187:7 4
3 *187:8 *187:9 0.3
4 *187:2 *187:8 4
5 *187:3 *187:2 4.88
6 *187:5 *187:3 4
7 *187:5 *187:6 0.3
8 *187:4 *187:6 4
9 *1073:B *187:4 0.72
*END

*D_NET *188 0.00702516

*CONN
*I *1074:B I *C 138 358.5 *L 0.033 *D OAI22X1
*I *721:Y O *C 157.2 358.5 *L 0 *D INVX2

*CAP
1 *1074:B 0.00028335
2 *721:Y 0.00087707
3 *188:2 0.00104708
4 *188:3 0.00148873
5 *188:4 0.00148873
6 *188:5 0.00047297
7 *188:6 0.00047297
8 *188:7 0.00044713
9 *188:8 0.00044713

*RES
1 *188:8 *1074:B 4
2 *188:7 *188:8 0.3
3 *188:4 *188:7 4
4 *188:4 *188:3 0.32
5 *188:5 *188:3 4
6 *188:5 *188:6 0.3
7 *188:2 *188:6 4
8 *188:2 *721:Y 0.945
*END

*D_NET *192 0.0125057

*CONN
*I *1260:B I *C 90 331.5 *L 0.0214 *D AND2X2
*I *1132:B I *C 85.2 328.5 *L 0.0216 *D NAND2X1
*I *1079:D I *C 78 358.5 *L 0.0332 *D OAI22X1
*I *725:Y O *C 78 331.5 *L 0 *D INVX2

*CAP
1 *1260:B 0.00028335
2 *1132:B 0.00028335
3 *1079:D 0.00028335
4 *725:Y 0.00028335
5 *192:4 0.00251317
6 *192:5 0.00270166
7 *192:6 0.00066146
8 *192:7 0.00094441
9 *192:8 0.00047184
10 *192:9 0.00047184
11 *192:10 0.00139823
12 *192:11 0.00139823
13 *192:12 0.00081146

*RES
1 *192:12 *1132:B 4
2 *192:7 *192:12 0.72
3 *192:9 *1260:B 4
4 *192:7 *192:6 0.3
5 *192:6 *725:Y 4
6 *192:4 *1079:D 4
7 *192:9 *192:8 0.3
8 *192:6 *192:5 0.3
9 *192:5 *192:4 2.4
10 *192:10 *192:8 4
11 *192:11 *192:5 4
12 *192:11 *192:10 0.4
*END

*D_NET *193 0.0204769

*CONN
*I *1136:B I *C 82.8 301.5 *L 0.0216 *D NAND2X1
*I *1132:A I *C 80.4 334.5 *L 0.0214 *D NAND2X1
*I *1080:D I *C 80.4 391.5 *L 0.0332 *D OAI22X1
*I *726:Y O *C 82.8 358.5 *L 0 *D INVX2

*CAP
1 *1136:B 0.00028335
2 *1132:A 0.00105399
3 *1080:D 0.00028335
4 *726:Y 0.00028335
5 *193:4 0.00212789
6 *193:5 0.00133017
7 *193:6 0.0021717
8 *193:7 0.00240271
9 *193:8 0.00244652
10 *193:9 0.00038383
11 *193:10 0.00094065
12 *193:11 0.00140677
13 *193:12 0.00145058
14 *193:13 0.00147641
15 *193:14 0.00243561

*RES
1 *193:7 *1136:B 4
2 *193:7 *193:8 2.4
3 *193:9 *193:8 0.24
4 *193:10 *193:9 4
5 *193:10 *1132:A 0.87
6 *193:11 *1132:A 4
7 *193:11 *193:12 1.2
8 *193:12 *193:13 0.24
9 *193:13 *193:14 1.2
10 *193:14 *726:Y 4
11 *193:14 *193:5 1.2
12 *193:6 *193:5 0.24
13 *193:6 *193:4 2.1
14 *1080:D *193:4 4
*END

*D_NET *194 0.0309031

*CONN
*I *1263:B I *C 25.2 298.5 *L 0.0214 *D AND2X2
*I *1182:B I *C 56.4 301.5 *L 0.0216 *D NAND2X1
*I *1082:D I *C 49.2 391.5 *L 0.0332 *D OAI22X1
*I *727:Y O *C 27.6 331.5 *L 0 *D INVX2

*CAP
1 *1263:B 0.00028335
2 *1182:B 0.00028335
3 *1082:D 0.00028335
4 *727:Y 0.00028335
5 *194:4 0.00298635
6 *194:5 0.00298635
7 *194:6 0.0004675
8 *194:7 0.0004675
9 *194:8 0.00405209
10 *194:9 0.00157209
11 *194:10 0.00280716
12 *194:11 0.00128339
13 *194:12 0.00166103
14 *194:13 0.0007048
15 *194:14 0.00326192
16 *194:15 0.00326192
17 *194:16 0.00212881
18 *194:17 0.00212881

*RES
1 *194:7 *1182:B 4
2 *194:7 *194:6 0.3
3 *194:4 *194:6 4
4 *194:13 *1263:B 4
5 *194:5 *194:4 1.04
6 *194:13 *194:12 0.6
7 *194:12 *194:5 4
8 *194:12 *194:11 1.2
9 *194:11 *194:9 0.24
10 *194:8 *727:Y 4
11 *194:9 *194:8 1.5
12 *194:8 *194:10 3
13 *194:16 *194:10 4
14 *194:16 *194:17 0.72
15 *194:15 *194:17 4
16 *194:15 *194:14 3
17 *1082:D *194:14 4
*END

*D_NET *195 0.0169461

*CONN
*I *1186:B I *C 49.2 301.5 *L 0.0216 *D NAND2X1
*I *1182:A I *C 51.6 295.5 *L 0.0214 *D NAND2X1
*I *1083:D I *C 49.2 358.5 *L 0.0332 *D OAI22X1
*I *728:Y O *C 42 298.5 *L 0 *D INVX2

*CAP
1 *1186:B 0.00037797
2 *1182:A 0.0005049
3 *1083:D 0.00028335
4 *728:Y 0.00028335
5 *195:4 0.00071286
6 *195:5 0.00070832
7 *195:6 0.0050029
8 *195:7 0.00446459
9 *195:8 0.0004491
10 *195:9 0.00092054
11 *195:10 0.00185482
12 *195:11 0.00138338

*RES
1 *1182:A *195:4 0.57
2 *195:11 *1083:D 4
3 *1186:B *195:4 0.24
4 *195:10 *195:11 1.2
5 *195:8 *1186:B 4
6 *195:7 *195:10 0.72
7 *195:8 *195:9 0.3
8 *195:6 *195:7 4.2
9 *195:6 *195:9 0.72
10 *195:5 *195:6 0.6
11 *728:Y *195:5 4
*END

*D_NET *196 0.0271798

*CONN
*I *999:A I *C 380.4 514.5 *L 0.0323 *D OAI21X1
*I *982:B I *C 394.8 514.5 *L 0.0637 *D XOR2X1
*I *980:A I *C 399.6 457.5 *L 0.027 *D NOR2X1
*I *979:A I *C 406.8 454.5 *L 0.0214 *D NAND2X1
*I *729:Y O *C 411.6 478.5 *L 0 *D INVX2

*CAP
1 *999:A 0.00028335
2 *982:B 0.00019498
3 *980:A 0.00028335
4 *979:A 0.00028335
5 *729:Y 0.00028335
6 *196:5 0.00302301
7 *196:6 0.00286771
8 *196:7 0.00293385
9 *196:8 0.00214405
10 *196:9 0.00164617
11 *196:10 0.00074471
12 *196:11 0.00123866
13 *196:12 0.00230255
14 *196:13 0.00206853
15 *196:14 0.00092197
16 *196:15 0.0004491
17 *196:16 0.00077595
18 *196:17 0.00043865
19 *196:18 0.00153143
20 *196:19 0.00153143
21 *196:20 0.00043431
22 *196:21 0.00043431
23 *196:22 0.00036499

*RES
1 *196:22 *982:B 0.225
2 *196:21 *196:22 4
3 *196:21 *196:20 0.3
4 *196:19 *196:20 4
5 *196:18 *196:19 0.4
6 *196:17 *196:18 4
7 *196:5 *999:A 4
8 *196:5 *196:17 0.3
9 *196:6 *196:5 3
10 *196:8 *196:6 4
11 *196:15 *980:A 4
12 *196:7 *196:11 0.386667
13 *196:8 *196:7 0.653333
14 *196:10 *979:A 4
15 *196:15 *196:14 0.3
16 *196:16 *196:11 4
17 *196:10 *196:9 0.6
18 *196:14 *196:9 0.72
19 *196:12 *729:Y 4
20 *196:12 *196:16 0.6
21 *196:9 *196:13 0.48
22 *196:13 *196:12 1.8
*END

*D_NET *197 0.024457

*CONN
*I *1022:A I *C 546 274.5 *L 0.0323 *D OAI21X1
*I *949:B I *C 534 214.5 *L 0.0637 *D XOR2X1
*I *947:A I *C 536.4 277.5 *L 0.027 *D NOR2X1
*I *946:A I *C 529.2 274.5 *L 0.0214 *D NAND2X1
*I *730:Y O *C 548.4 211.5 *L 0 *D INVX2

*CAP
1 *1022:A 0.00038994
2 *949:B 0.00028335
3 *947:A 0.00047833
4 *946:A 0.00028335
5 *730:Y 0.00028335
6 *197:5 0.00584508
7 *197:6 0.00584508
8 *197:7 0.00047919
9 *197:8 0.00047919
10 *197:9 0.00080799
11 *197:10 0.00080799
12 *197:11 0.00085694
13 *197:12 0.00132729
14 *197:13 0.0008631
15 *197:14 0.0004675
16 *197:15 0.0004675
17 *197:16 0.0004737
18 *197:17 0.00046072
19 *197:18 0.00065457
20 *197:19 0.00038673
21 *197:20 0.00038673
22 *197:21 0.00106471
23 *197:22 0.00106471

*RES
1 *197:20 *946:A 4
2 *197:19 *197:20 0.24
3 *197:21 *197:19 4
4 *197:21 *197:22 0.32
5 *197:8 *197:22 4
6 *197:8 *197:7 0.3
7 *947:A *197:7 4
8 *197:15 *949:B 4
9 *197:10 *730:Y 4
10 *947:A *197:17 0.225
11 *197:15 *197:14 0.3
12 *197:10 *197:9 0.6
13 *197:16 *197:17 0.3
14 *197:13 *197:14 4
15 *197:11 *197:9 4
16 *197:16 *197:18 0.24
17 *197:18 *1022:A 0.45
18 *197:13 *197:12 0.24
19 *197:12 *197:11 0.24
20 *197:5 *197:18 4
21 *197:6 *197:12 4
22 *197:6 *197:5 5.7
*END

*D_NET *198 0.0161134

*CONN
*I *1031:A I *C 339.6 235.5 *L 0.0323 *D OAI21X1
*I *953:B I *C 346.8 295.5 *L 0.0637 *D XOR2X1
*I *731:Y O *C 337.2 271.5 *L 0 *D INVX2

*CAP
1 *1031:A 0.00028335
2 *953:B 0.00028335
3 *731:Y 0.00019498
4 *198:3 0.00314254
5 *198:4 0.00036499
6 *198:5 0.00419503
7 *198:6 0.00074234
8 *198:7 0.00369348
9 *198:8 0.00321332

*RES
1 *731:Y *198:4 0.225
2 *198:8 *953:B 4
3 *198:6 *198:4 4
4 *198:7 *198:8 3
5 *198:5 *198:6 0.6
6 *198:5 *198:7 0.72
7 *198:3 *198:5 3
8 *1031:A *198:3 4
*END

*D_NET *199 0.0222163

*CONN
*I *943:A I *C 421.2 295.5 *L 0.0323 *D OAI21X1
*I *942:A I *C 423.6 235.5 *L 0.0536 *D XOR2X1
*I *939:A I *C 416.4 274.5 *L 0.0323 *D OAI21X1
*I *732:Y O *C 411.6 211.5 *L 0 *D INVX2

*CAP
1 *943:A 0.00028335
2 *942:A 0.00028335
3 *939:A 0.00040294
4 *732:Y 0.00101386
5 *199:4 0.0012796
6 *199:5 0.00043575
7 *199:6 0.00187097
8 *199:7 0.00472526
9 *199:8 0.00219447
10 *199:9 0.00219447
11 *199:10 0.00066757
12 *199:11 0.00037797
13 *199:12 0.00313764
14 *199:12 *336:2 0.00099755
15 *199:7 *336:3 0.00099755
16 *199:7 *336:2 0.00053714
17 *199:6 *336:3 0.00053714
18 *199:8 *336:2 0.00013987
19 *199:9 *336:3 0.00013987

*RES
1 *199:8 *943:A 4
2 *199:9 *199:8 2.1
3 *939:A *199:10 0.465
4 *199:10 *199:9 4
5 *199:10 *199:11 0.24
6 *199:12 *199:11 4
7 *199:7 *942:A 4
8 *199:7 *199:12 3.9
9 *199:6 *199:7 2.1
10 *199:5 *199:6 4
11 *732:Y *199:4 1.17
12 *199:4 *199:5 0.3
*END

*D_NET *200 0.00722532

*CONN
*I *961:A I *C 531.6 397.5 *L 0.027 *D NOR2X1
*I *960:A I *C 538.8 394.5 *L 0.0214 *D NAND2X1
*I *733:Y O *C 541.2 391.5 *L 0 *D INVX2

*CAP
1 *961:A 0.00028335
2 *960:A 0.00023916
3 *733:Y 0.00040294
4 *200:3 0.00044166
5 *200:4 0.00044166
6 *200:5 0.00047919
7 *200:6 0.00047919
8 *200:7 0.0015986
9 *200:8 0.00127571
10 *200:9 0.00044712
11 *200:10 0.00036499
12 *200:11 0.00077175

*RES
1 *200:9 *960:A 0.27
2 *200:9 *733:Y 0.24
3 *733:Y *200:10 0.225
4 *200:5 *200:10 4
5 *200:6 *200:5 0.3
6 *200:11 *200:6 4
7 *200:11 *200:7 0.2
8 *200:8 *200:7 0.4
9 *200:4 *200:8 4
10 *200:4 *200:3 0.3
11 *961:A *200:3 4
*END

*D_NET *201 0.0064412

*CONN
*I *967:A I *C 548.4 457.5 *L 0.027 *D NOR2X1
*I *966:A I *C 541.2 454.5 *L 0.0214 *D NAND2X1
*I *734:Y O *C 553.2 451.5 *L 0 *D INVX2

*CAP
1 *967:A 0.0005049
2 *966:A 0.00022313
3 *734:Y 0.00040294
4 *201:3 0.00050503
5 *201:4 0.00050503
6 *201:5 0.0007418
7 *201:6 0.00069257
8 *201:7 0.00050503
9 *201:8 0.00050503
10 *201:9 0.00039314
11 *201:10 0.00096451
12 *201:11 0.00049809

*RES
1 *201:10 *734:Y 0.465
2 *201:10 *967:A 0.57
3 *201:4 *201:10 4
4 *201:4 *201:3 0.3
5 *201:11 *201:3 4
6 *201:5 *201:11 0.1
7 *201:6 *201:5 0.16
8 *201:8 *201:6 4
9 *201:8 *201:7 0.3
10 *201:9 *201:7 4
11 *966:A *201:9 0.225
*END

*D_NET *202 0.00403148

*CONN
*I *973:A I *C 474 457.5 *L 0.027 *D NOR2X1
*I *972:A I *C 481.2 454.5 *L 0.0214 *D NAND2X1
*I *735:Y O *C 483.6 451.5 *L 0 *D INVX2

*CAP
1 *973:A 0.00028335
2 *972:A 0.00028335
3 *735:Y 0.00028335
4 *202:3 0.00048519
5 *202:4 0.00044091
6 *202:5 0.00081289
7 *202:6 0.00053526
8 *202:7 0.00090718

*RES
1 *202:4 *735:Y 4
2 *202:4 *202:3 0.3
3 *202:6 *972:A 4
4 *202:6 *202:3 0.24
5 *202:6 *202:7 0.3
6 *202:5 *202:7 0.72
7 *973:A *202:5 4
*END

*D_NET *203 0.0094188

*CONN
*I *987:A I *C 385.2 412.5 *L 0.027 *D NOR2X1
*I *985:A I *C 392.4 415.5 *L 0.0214 *D NAND2X1
*I *736:Y O *C 385.2 391.5 *L 0 *D INVX2

*CAP
1 *987:A 0.00028335
2 *985:A 0.00020796
3 *736:Y 0.00028335
4 *203:3 0.000617
5 *203:4 0.000617
6 *203:5 0.0004283
7 *203:6 0.00190395
8 *203:7 0.001759
9 *203:8 0.00037797
10 *203:9 0.00085659
11 *203:10 0.00085659
12 *203:3 *409:5 0.00015347
13 *203:4 *409:4 0.00015347
14 *203:5 *409:5 7.673e-05
15 *203:6 *409:4 7.673e-05
16 *203:6 *409:5 0.00038367
17 *203:7 *409:4 0.00038367

*RES
1 *203:8 *985:A 0.24
2 *203:3 *203:8 4
3 *203:4 *203:3 0.6
4 *203:10 *203:4 4
5 *203:5 *987:A 4
6 *203:9 *203:10 0.16
7 *203:6 *203:5 0.3
8 *203:6 *203:9 4
9 *203:7 *203:6 1.8
10 *736:Y *203:7 4
*END

*D_NET *204 0.0162468

*CONN
*I *937:A I *C 469.2 241.5 *L 0.0269 *D NAND3X1
*I *907:D I *C 471.6 175.5 *L 0.0332 *D AOI22X1
*I *905:D I *C 474 214.5 *L 0.0332 *D AOI22X1
*I *737:Y O *C 469.2 211.5 *L 0 *D INVX2

*CAP
1 *937:A 0.00028335
2 *907:D 0.00028335
3 *905:D 0.00019498
4 *737:Y 0.00028335
5 *204:4 0.00051855
6 *204:5 0.00188544
7 *204:6 0.00193215
8 *204:7 0.00219682
9 *204:8 0.0023386
10 *204:9 0.00080925
11 *204:10 0.00216838
12 *204:11 0.00222505
13 *204:12 0.00036499
14 *204:13 0.00076254

*RES
1 *204:5 *907:D 4
2 *204:13 *937:A 4
3 *204:5 *204:6 1.8
4 *204:9 *204:13 0.6
5 *204:7 *204:6 0.24
6 *204:9 *204:10 0.24
7 *204:12 *905:D 0.225
8 *204:7 *204:8 1.8
9 *204:8 *737:Y 4
10 *204:11 *204:10 2.1
11 *204:11 *204:12 4
12 *204:8 *204:4 0.3
13 *204:4 *204:11 0.24
*END

*D_NET *205 0.0265155

*CONN
*I *1055:A I *C 267.6 448.5 *L 0.0269 *D NAND3X1
*I *1045:B I *C 296.4 361.5 *L 0.0216 *D NAND2X1
*I *738:Y O *C 296.4 391.5 *L 0 *D INVX2

*CAP
1 *1055:A 0.000238
2 *1045:B 0.00124782
3 *738:Y 0.00139796
4 *205:3 0.00235719
5 *205:4 0.00235719
6 *205:5 0.00040801
7 *205:6 0.00322011
8 *205:7 0.00581531
9 *205:8 0.00287855
10 *205:9 0.00156797
11 *205:10 0.00141783
12 *205:11 0.00180479
13 *205:12 0.00180479

*RES
1 *1055:A *205:5 0.24
2 *205:3 *205:5 4
3 *205:4 *205:3 2.4
4 *205:11 *205:4 4
5 *205:11 *205:12 0.4
6 *205:9 *738:Y 1.44
7 *205:6 *205:12 4
8 *205:7 *205:9 4
9 *205:7 *205:6 3.3
10 *205:8 *205:7 3
11 *205:10 *205:8 4
12 *205:10 *1045:B 1.44
*END

*D_NET *206 0.0370542

*CONN
*I *1083:C I *C 51.6 355.5 *L 0.0325 *D OAI22X1
*I *1082:C I *C 51.6 394.5 *L 0.0325 *D OAI22X1
*I *1081:C I *C 90 355.5 *L 0.0325 *D OAI22X1
*I *1080:C I *C 82.8 394.5 *L 0.0325 *D OAI22X1
*I *1079:C I *C 80.4 355.5 *L 0.0325 *D OAI22X1
*I *1078:B I *C 49.2 334.5 *L 0.0325 *D AOI22X1
*I *739:Y O *C 54 358.5 *L 0 *D INVX2

*CAP
1 *1083:C 0.00028335
2 *1082:C 0.00028335
3 *1081:C 0.00020796
4 *1080:C 0.00020796
5 *1079:C 0.00028335
6 *1078:B 0.00028335
7 *739:Y 0.00040294
8 *206:7 0.00434445
9 *206:8 0.00169976
10 *206:9 0.00152189
11 *206:10 0.00104912
12 *206:11 0.00100531
13 *206:12 0.00347319
14 *206:13 0.00362522
15 *206:14 0.00072501
16 *206:15 0.00076882
17 *206:16 0.00050503
18 *206:17 0.00072671
19 *206:18 0.00050503
20 *206:19 0.00047919
21 *206:20 0.00085728
22 *206:21 0.00085728
23 *206:22 0.00412277
24 *206:23 0.00037797
25 *206:24 0.00057295
26 *206:25 0.00037797
27 *206:26 0.00047919
28 *206:27 0.00047919
29 *206:28 0.00087131
30 *206:29 0.00293767
31 *206:30 0.00049535
32 *206:31 0.0022443

*RES
1 *1080:C *206:23 0.24
2 *206:14 *206:23 4
3 *206:15 *206:14 0.6
4 *206:15 *206:12 0.24
5 *206:25 *1081:C 0.24
6 *206:13 *206:12 3.3
7 *206:13 *206:25 4
8 *206:19 *206:13 0.3
9 *206:20 *206:19 4
10 *206:21 *206:20 0.24
11 *739:Y *206:24 0.465
12 *206:18 *206:21 4
13 *206:26 *206:24 4
14 *206:18 *206:17 0.3
15 *206:17 *1079:C 4
16 *206:11 *1078:B 4
17 *206:26 *206:27 0.3
18 *206:17 *206:16 0.3
19 *206:11 *206:10 0.9
20 *206:30 *206:27 4
21 *206:31 *206:16 4
22 *206:10 *206:9 0.24
23 *206:29 *206:30 0.1
24 *206:29 *206:31 0.72
25 *206:9 *206:8 1.2
26 *206:8 *1083:C 4
27 *206:28 *206:29 0.24
28 *206:8 *206:7 0.3
29 *206:7 *206:28 4
30 *206:7 *206:22 3.6
31 *1082:C *206:22 4
*END

*D_NET *207 0.11426

*CONN
*I *1205:A I *C 219.6 475.5 *L 0.0323 *D OAI21X1
*I *1052:B I *C 325.2 388.5 *L 0.0216 *D NAND2X1
*I *1050:A I *C 339.6 475.5 *L 0.0323 *D OAI21X1
*I *1039:A I *C 478.8 334.5 *L 0.0323 *D OAI21X1
*I *1020:A I *C 478.8 355.5 *L 0.0323 *D OAI21X1
*I *1013:B I *C 476.4 391.5 *L 0.033 *D OAI21X1
*I *1006:A I *C 430.8 475.5 *L 0.0323 *D OAI21X1
*I *994:B I *C 334.8 451.5 *L 0.033 *D OAI21X1
*I *740:Y O *C 238.8 451.5 *L 0 *D INVX2

*CAP
1 *1205:A 0.00028335
2 *1052:B 0.00028335
3 *1050:A 0.00028335
4 *1039:A 0.000238
5 *1020:A 0.00019498
6 *1013:B 0.00028335
7 *1006:A 0.00111507
8 *994:B 0.00020796
9 *740:Y 0.00192111
10 *207:9 0.00260917
11 *207:10 0.00260917
12 *207:11 0.00632142
13 *207:12 0.00583543
14 *207:13 0.00047494
15 *207:14 0.00047494
16 *207:15 0.00874234
17 *207:16 0.00874234
18 *207:17 0.00808927
19 *207:18 0.00615581
20 *207:19 0.00243158
21 *207:20 0.00264588
22 *207:21 0.00797562
23 *207:22 0.00778403
24 *207:23 0.00101514
25 *207:24 0.00426933
26 *207:25 0.00556269
27 *207:26 0.0023085
28 *207:27 0.00076934
29 *207:28 0.00040801
30 *207:29 0.00693704
31 *207:30 0.00693704
32 *207:31 0.00128508
33 *207:32 0.00058014
34 *207:33 0.00047919
35 *207:34 0.00097025
36 *207:35 0.00097136
37 *207:36 0.00238232
38 *207:37 0.00036499
39 *207:38 0.00180777
40 *207:39 0.00043575
41 *207:40 0.0005986
42 *207:41 0.00047494

*RES
1 *207:9 *1205:A 4
2 *207:10 *207:9 2.4
3 *207:38 *207:10 4
4 *207:38 *740:Y 1.89
5 *207:14 *740:Y 4
6 *207:14 *207:13 0.3
7 *207:16 *207:13 4
8 *207:16 *207:15 2.88
9 *207:12 *1052:B 4
10 *207:27 *207:15 4
11 *207:12 *207:11 6
12 *207:11 *207:27 0.6
13 *207:39 *207:11 4
14 *207:39 *207:35 0.3
15 *207:35 *207:34 0.72
16 *207:34 *994:B 0.24
17 *207:40 *207:34 4
18 *207:40 *207:20 0.48
19 *207:20 *207:19 2.4
20 *207:19 *207:32 0.24
21 *207:32 *1050:A 4
22 *207:33 *207:32 0.3
23 *207:18 *207:33 4
24 *207:31 *1006:A 1.185
25 *207:17 *207:36 0.626667
26 *207:18 *207:17 2.01333
27 *207:41 *207:31 4
28 *207:21 *207:36 4
29 *207:21 *207:41 0.3
30 *207:22 *207:21 7.2
31 *207:30 *207:22 4
32 *207:30 *207:29 1.92
33 *207:23 *207:29 4
34 *207:37 *1020:A 0.225
35 *207:24 *1013:B 4
36 *207:24 *207:23 0.9
37 *207:25 *207:37 4
38 *207:25 *207:24 3.6
39 *207:26 *207:25 2.1
40 *207:28 *207:26 4
41 *207:28 *1039:A 0.24
*END

*D_NET *208 0.0620219

*CONN
*I *931:D I *C 442.8 331.5 *L 0.0332 *D OAI22X1
*I *926:D I *C 435.6 331.5 *L 0.0332 *D OAI22X1
*I *922:D I *C 459.6 298.5 *L 0.0332 *D OAI22X1
*I *918:D I *C 495.6 331.5 *L 0.0332 *D OAI22X1
*I *914:D I *C 488.4 298.5 *L 0.0332 *D OAI22X1
*I *910:D I *C 488.4 271.5 *L 0.0332 *D OAI22X1
*I *907:A I *C 464.4 178.5 *L 0.0323 *D AOI22X1
*I *905:A I *C 481.2 211.5 *L 0.0323 *D AOI22X1
*I *741:Y O *C 474 271.5 *L 0 *D INVX2

*CAP
1 *931:D 0.00028335
2 *926:D 0.00028335
3 *922:D 0.00028335
4 *918:D 0.00028335
5 *914:D 0.00028335
6 *910:D 0.00028335
7 *907:A 0.00028335
8 *905:A 0.00028335
9 *741:Y 0.00068396
10 *208:9 0.00221439
11 *208:10 0.00168485
12 *208:11 0.00154561
13 *208:12 0.00170401
14 *208:13 0.00044175
15 *208:14 0.00534987
16 *208:15 0.00741999
17 *208:16 0.00248847
18 *208:17 0.00255589
19 *208:18 0.00258795
20 *208:19 0.0004283
21 *208:20 0.0017222
22 *208:21 0.0017222
23 *208:22 0.00117511
24 *208:23 0.00117511
25 *208:24 0.00096734
26 *208:25 0.00334997
27 *208:26 0.00278789
28 *208:27 0.00278789
29 *208:28 0.0008631
30 *208:29 0.0008631
31 *208:30 0.00085397
32 *208:31 0.00041835
33 *208:32 0.00277538
34 *208:33 0.00039624
35 *208:34 0.00163005
36 *208:35 0.00163005
37 *208:36 0.00081289
38 *208:35 *442:7 0.00069754
39 *208:34 *442:8 0.00069754
40 *208:24 *330:8 4.46e-06
41 *208:25 *330:9 4.46e-06
42 *208:25 *330:8 4.46e-06
43 *208:32 *330:9 4.46e-06
44 *208:26 *330:6 0.00038367
45 *208:27 *330:7 0.00038367
46 *208:26 *330:4 6.6e-06
47 *208:27 *330:5 6.6e-06
48 *208:33 *330:4 7.673e-05
49 *208:17 *330:5 7.673e-05
50 *208:17 *330:4 0.00069061
51 *208:18 *330:5 0.00069061
52 *208:18 *330:4 7.673e-05
53 *208:19 *330:5 7.673e-05
54 *208:31 *330:4 2.331e-05
55 *208:14 *330:5 2.331e-05
56 *208:14 *330:2 2.251e-05
57 *208:15 *330:3 2.251e-05
58 *208:14 *330:4 0.00037297
59 *208:15 *330:5 0.00037297

*RES
1 *208:36 *926:D 4
2 *208:9 *931:D 4
3 *208:36 *208:9 0.72
4 *208:10 *208:9 1.5
5 *208:34 *208:10 4
6 *208:34 *208:35 0.56
7 *208:13 *922:D 4
8 *208:11 *208:35 4
9 *208:26 *918:D 4
10 *208:13 *208:12 0.3
11 *208:12 *208:11 1.5
12 *208:27 *208:26 3
13 *208:32 *208:12 4
14 *208:24 *208:27 4
15 *208:32 *208:25 0.96
16 *208:25 *208:24 0.24
17 *208:33 *208:25 4
18 *208:17 *914:D 4
19 *208:17 *208:33 0.3
20 *208:18 *910:D 4
21 *208:18 *208:17 2.7
22 *208:19 *208:18 0.3
23 *208:28 *208:19 4
24 *741:Y *208:30 0.72
25 *208:29 *208:28 0.24
26 *208:31 *208:30 4
27 *208:14 *208:29 4
28 *208:14 *208:31 0.3
29 *208:15 *905:A 4
30 *208:15 *208:14 5.7
31 *208:16 *208:15 2.4
32 *208:20 *208:16 4
33 *208:21 *208:20 0.56
34 *208:22 *208:21 4
35 *208:23 *907:A 4
36 *208:23 *208:22 0.9
*END

*D_NET *209 0.0184855

*CONN
*I *1076:D I *C 114 355.5 *L 0.0332 *D AOI22X1
*I *1075:D I *C 114 394.5 *L 0.0332 *D AOI22X1
*I *1074:A I *C 135.6 355.5 *L 0.0323 *D OAI22X1
*I *743:Y O *C 133.2 358.5 *L 0 *D INVX2

*CAP
1 *1076:D 0.00028335
2 *1075:D 0.00028335
3 *1074:A 0.00023916
4 *743:Y 0.00087894
5 *209:4 0.00373331
6 *209:5 0.00074659
7 *209:6 0.00327007
8 *209:7 0.00175013
9 *209:8 0.00262741
10 *209:9 0.00050503
11 *209:10 0.00050503
12 *209:11 0.00104895
13 *209:12 0.00040917
14 *209:13 0.0004675
15 *209:14 0.0004675
16 *209:15 0.00127003

*RES
1 *1074:A *209:12 0.27
2 *209:11 *743:Y 0.945
3 *209:13 *209:12 4
4 *209:10 *209:11 4
5 *209:13 *209:14 0.3
6 *209:10 *209:9 0.3
7 *209:7 *209:14 4
8 *209:8 *209:9 4
9 *209:8 *209:7 0.4
10 *209:5 *1076:D 4
11 *209:15 *209:8 0.32
12 *209:5 *209:4 0.6
13 *209:4 *209:15 4
14 *209:4 *209:6 3.3
15 *1075:D *209:6 4
*END

*D_NET *210 0.0358507

*CONN
*I *1064:C I *C 82.8 454.5 *L 0.0325 *D OAI22X1
*I *1063:C I *C 102 415.5 *L 0.0325 *D OAI22X1
*I *1062:C I *C 56.4 454.5 *L 0.0325 *D OAI22X1
*I *1061:C I *C 94.8 454.5 *L 0.0325 *D OAI22X1
*I *1060:C I *C 106.8 454.5 *L 0.0325 *D OAI22X1
*I *824:C I *C 58.8 415.5 *L 0.0325 *D OAI22X1
*I *744:Y O *C 106.8 418.5 *L 0 *D INVX2

*CAP
1 *1064:C 0.00028335
2 *1063:C 0.00028335
3 *1062:C 0.00044598
4 *1061:C 0.00028335
5 *1060:C 0.00028335
6 *824:C 0.0006239
7 *744:Y 0.00028335
8 *210:7 0.00061599
9 *210:8 0.00043544
10 *210:9 0.0035911
11 *210:10 0.00343901
12 *210:11 0.00339821
13 *210:12 0.00349082
14 *210:13 0.00069928
15 *210:14 0.00044166
16 *210:15 0.00050503
17 *210:16 0.00050503
18 *210:17 0.00050503
19 *210:18 0.00050503
20 *210:19 0.00130655
21 *210:20 0.00222035
22 *210:21 0.00329569
23 *210:22 0.00238189
24 *210:23 0.00079391
25 *210:24 0.00050503
26 *210:19 *581:10 0.00049824
27 *210:20 *581:11 0.00049824
28 *210:20 *581:10 0.00049824
29 *210:21 *581:11 0.00049824
30 *210:21 *581:10 0.00069754
31 *210:22 *581:11 0.00069754
32 *210:21 *581:11 0.00059789
33 *210:22 *581:16 0.00059789
34 *210:9 *581:15 6.599e-05
35 *210:10 *581:6 6.599e-05
36 *210:9 *581:6 6.6e-06
37 *210:10 *581:7 6.6e-06

*RES
1 *210:14 *1063:C 4
2 *210:14 *210:13 0.3
3 *210:12 *744:Y 4
4 *210:13 *210:12 0.48
5 *210:24 *1060:C 4
6 *210:15 *1061:C 4
7 *210:12 *210:11 3.3
8 *210:11 *210:24 0.3
9 *210:17 *1064:C 4
10 *210:16 *210:15 0.3
11 *210:19 *210:11 4
12 *210:18 *210:17 0.3
13 *210:20 *210:16 4
14 *210:20 *210:19 0.4
15 *210:23 *824:C 0.72
16 *210:21 *210:18 4
17 *210:21 *210:20 0.4
18 *210:10 *210:23 4
19 *210:22 *210:21 1.04
20 *210:10 *210:9 3.6
21 *210:9 *210:22 4
22 *210:9 *210:8 0.3
23 *210:7 *210:8 4
24 *210:7 *1062:C 0.48
*END

*D_NET *211 0.0449728

*CONN
*I *1229:A I *C 243.6 328.5 *L 0.0269 *D NAND3X1
*I *1077:B I *C 169.2 361.5 *L 0.0216 *D NAND2X1
*I *1065:B I *C 176.4 421.5 *L 0.0216 *D NAND2X1
*I *900:B I *C 231.6 331.5 *L 0.0269 *D NAND3X1
*I *745:Y O *C 198 418.5 *L 0 *D INVX2

*CAP
1 *1229:A 0.00059792
2 *1077:B 0.000238
3 *1065:B 0.00020796
4 *900:B 0.00077064
5 *745:Y 0.00148582
6 *211:5 0.00627769
7 *211:6 0.00627769
8 *211:7 0.00040801
9 *211:8 0.00509488
10 *211:9 0.00675934
11 *211:10 0.00165583
12 *211:11 0.00040917
13 *211:12 0.0004675
14 *211:13 0.00094742
15 *211:14 0.00068168
16 *211:15 0.00086366
17 *211:16 0.00194781
18 *211:17 0.0004675
19 *211:18 0.00037797
20 *211:19 0.00038383
21 *211:20 0.00038383
22 *211:21 0.00043431
23 *211:22 0.00043431
24 *211:23 0.00065691
25 *211:24 0.00135071
26 *211:25 0.00108655
27 *211:22 *315:8 4.34e-06
28 *211:21 *315:9 4.34e-06
29 *211:8 *315:8 0.00153469
30 *211:9 *315:9 0.00153469
31 *211:9 *315:8 0.00061388
32 *211:16 *315:9 0.00061388

*RES
1 *211:10 *745:Y 1.68
2 *211:18 *1065:B 0.24
3 *211:21 *211:10 4
4 *211:20 *211:18 4
5 *211:21 *211:22 0.3
6 *211:19 *211:20 0.24
7 *211:25 *211:22 4
8 *211:24 *211:19 4
9 *211:24 *211:25 0.32
10 *211:23 *211:24 0.16
11 *211:7 *1077:B 0.24
12 *211:8 *211:23 4
13 *211:9 *211:7 4
14 *211:9 *211:8 6
15 *211:15 *1229:A 0.69
16 *211:16 *211:9 2.4
17 *211:14 *211:15 0.3
18 *211:6 *211:16 4
19 *211:13 *211:14 0.48
20 *211:6 *211:5 2.16
21 *211:13 *900:B 0.6
22 *211:17 *211:5 4
23 *211:12 *211:17 0.3
24 *900:B *211:11 0.27
25 *211:11 *211:12 4
*END

*D_NET *212 0.0146389

*CONN
*I *1053:B I *C 327.6 358.5 *L 0.0277 *D NOR2X1
*I *1035:B I *C 313.2 331.5 *L 0.033 *D OAI21X1
*I *935:A I *C 330 337.5 *L 0.027 *D NOR2X1
*I *746:Y O *C 301.2 331.5 *L 0 *D INVX2

*CAP
1 *1053:B 0.000238
2 *1035:B 0.00041594
3 *935:A 0.00028335
4 *746:Y 0.0006239
5 *212:4 0.00233462
6 *212:5 0.00243557
7 *212:6 0.00075829
8 *212:7 0.00075829
9 *212:8 0.00109651
10 *212:9 0.00040801
11 *212:10 0.0003843
12 *212:11 0.00245106
13 *212:12 0.00245106

*RES
1 *1053:B *212:9 0.24
2 *212:4 *212:9 4
3 *212:5 *935:A 4
4 *212:5 *212:4 2.1
5 *212:5 *212:10 0.24
6 *212:12 *212:10 4
7 *212:11 *212:12 0.8
8 *746:Y *212:8 0.72
9 *212:8 *1035:B 0.48
10 *212:6 *212:11 4
11 *212:7 *212:8 4
12 *212:7 *212:6 0.6
*END

*D_NET *213 0.0235406

*CONN
*I *1230:A I *C 238.8 415.5 *L 0.0214 *D NAND2X1
*I *1086:B I *C 272.4 388.5 *L 0.0216 *D NAND2X1
*I *1054:B I *C 274.8 418.5 *L 0.033 *D OAI21X1
*I *747:Y O *C 243.6 391.5 *L 0 *D INVX2

*CAP
1 *1230:A 0.00028335
2 *1086:B 0.00028335
3 *1054:B 0.00028335
4 *747:Y 0.00044597
5 *213:4 0.00298672
6 *213:5 0.00303053
7 *213:6 0.00057345
8 *213:7 0.00047297
9 *213:8 0.00061598
10 *213:9 0.00084007
11 *213:10 0.00317044
12 *213:11 0.00261372
13 *213:12 0.00257525
14 *213:13 0.00257525
15 *213:13 *187:2 0.00139508
16 *213:12 *187:3 0.00139508

*RES
1 *213:4 *1054:B 4
2 *213:5 *213:4 3
3 *213:6 *1086:B 4
4 *213:6 *213:5 0.24
5 *213:7 *213:6 0.3
6 *213:13 *213:7 4
7 *213:12 *213:13 1.12
8 *213:8 *747:Y 0.48
9 *213:9 *213:12 4
10 *213:10 *213:8 4
11 *213:9 *213:10 0.6
12 *213:10 *213:11 2.4
13 *1230:A *213:11 4
*END

*D_NET *214 0.0201106

*CONN
*I *1200:B I *C 205.2 418.5 *L 0.0269 *D NAND3X1
*I *1084:B I *C 183.6 388.5 *L 0.0216 *D NAND2X1
*I *1065:A I *C 181.2 415.5 *L 0.0214 *D NAND2X1
*I *748:Y O *C 243.6 418.5 *L 0 *D INVX2

*CAP
1 *1200:B 0.00028335
2 *1084:B 0.00028335
3 *1065:A 0.000238
4 *748:Y 0.00041594
5 *214:4 0.00285146
6 *214:5 0.00268768
7 *214:6 0.00040801
8 *214:7 0.00058595
9 *214:8 0.00044713
10 *214:9 0.00038383
11 *214:10 0.00038383
12 *214:11 0.00038383
13 *214:12 0.00038383
14 *214:13 0.00198603
15 *214:14 0.00499082
16 *214:15 0.00339754

*RES
1 *214:7 *748:Y 0.48
2 *214:12 *214:7 4
3 *214:10 *1200:B 4
4 *214:11 *214:12 0.24
5 *214:9 *214:10 0.24
6 *214:15 *214:11 4
7 *214:14 *214:9 4
8 *214:14 *214:15 1.12
9 *214:13 *214:14 0.64
10 *214:5 *1084:B 4
11 *214:8 *214:13 4
12 *214:5 *214:4 2.7
13 *214:4 *214:8 0.3
14 *214:6 *214:4 4
15 *1065:A *214:6 0.24
*END

*D_NET *215 0.0456688

*CONN
*I *1229:B I *C 246 331.5 *L 0.0269 *D NAND3X1
*I *1228:A I *C 231.6 352.5 *L 0.027 *D NOR2X1
*I *1217:B I *C 236.4 358.5 *L 0.0269 *D NAND3X1
*I *1201:A I *C 265.2 415.5 *L 0.0214 *D NAND2X1
*I *1197:B I *C 229.2 394.5 *L 0.0325 *D AOI22X1
*I *1055:B I *C 270 451.5 *L 0.0269 *D NAND3X1
*I *749:Y O *C 246 358.5 *L 0 *D INVX2

*CAP
1 *1229:B 0.00028335
2 *1228:A 0.00028335
3 *1217:B 0.00028335
4 *1201:A 0.00022313
5 *1197:B 0.00028335
6 *1055:B 0.00028335
7 *749:Y 0.00028335
8 *215:7 0.00170779
9 *215:8 0.001598
10 *215:9 0.00050503
11 *215:10 0.00050503
12 *215:11 0.00388193
13 *215:12 0.00388193
14 *215:13 0.00811879
15 *215:14 0.00270829
16 *215:15 0.00355439
17 *215:16 0.0048948
18 *215:17 0.00096945
19 *215:18 0.00102259
20 *215:19 0.00102259
21 *215:20 0.00071347
22 *215:21 0.00075728
23 *215:22 0.00482573
24 *215:23 0.00085659
25 *215:24 0.00085659
26 *215:25 0.00059764
27 *215:26 0.00038383
28 *215:27 0.00038383

*RES
1 *215:27 *1055:B 4
2 *215:26 *215:27 0.24
3 *215:23 *215:26 4
4 *215:24 *215:23 0.16
5 *215:11 *215:24 4
6 *215:9 *1197:B 4
7 *215:12 *215:11 3.6
8 *215:10 *215:9 0.3
9 *215:7 *1201:A 0.225
10 *215:7 *215:12 4
11 *215:19 *215:10 4
12 *215:8 *215:7 1.44
13 *215:25 *1228:A 4
14 *215:19 *215:18 0.24
15 *215:20 *215:8 4
16 *215:25 *215:17 0.48
17 *215:15 *215:18 4
18 *215:21 *215:20 0.6
19 *215:16 *1217:B 4
20 *215:17 *215:16 0.6
21 *215:16 *215:15 3.3
22 *215:22 *215:21 0.24
23 *215:13 *749:Y 4
24 *215:16 *215:13 0.96
25 *215:13 *215:22 5.1
26 *215:14 *215:13 2.7
27 *1229:B *215:14 4
*END

*D_NET *216 0.0324435

*CONN
*I *1230:B I *C 234 421.5 *L 0.0216 *D NAND2X1
*I *1227:B I *C 198 358.5 *L 0.0269 *D NAND3X1
*I *1217:A I *C 234 361.5 *L 0.0269 *D NAND3X1
*I *1198:A I *C 198 397.5 *L 0.027 *D NOR2X1
*I *1197:D I *C 224.4 394.5 *L 0.0332 *D AOI22X1
*I *750:Y O *C 207.6 391.5 *L 0 *D INVX2

*CAP
1 *1230:B 0.00095199
2 *1227:B 0.00028335
3 *1217:A 0.00028335
4 *1198:A 0.00028335
5 *1197:D 0.00163828
6 *750:Y 0.00040294
7 *216:6 0.00216122
8 *216:7 0.00415703
9 *216:8 0.00253678
10 *216:9 0.00374518
11 *216:10 0.00272513
12 *216:11 0.00162067
13 *216:12 0.00131341
14 *216:13 0.00131341
15 *216:14 0.00059764
16 *216:15 0.00036499
17 *216:16 0.0004737
18 *216:17 0.001122
19 *216:18 0.0013034
20 *216:19 0.00078839
21 *216:20 0.00078839
22 *216:21 0.00102712
23 *216:22 0.00102712
24 *216:6 *564:3 0.00069061
25 *216:7 *564:2 0.00069061
26 *216:7 *564:3 7.673e-05
27 *216:8 *564:2 7.673e-05

*RES
1 *216:10 *1227:B 4
2 *216:18 *1198:A 4
3 *216:10 *216:9 2.7
4 *216:9 *216:18 1.2
5 *216:21 *216:9 4
6 *216:21 *216:22 0.24
7 *216:19 *216:22 4
8 *216:19 *216:20 0.6
9 *216:15 *216:20 4
10 *216:15 *750:Y 0.225
11 *750:Y *216:16 0.24
12 *216:16 *216:11 0.3
13 *216:11 *1197:D 1.425
14 *216:17 *1230:B 0.96
15 *216:6 *216:17 4
16 *216:7 *1197:D 4
17 *216:7 *216:6 2.7
18 *216:8 *216:7 2.4
19 *216:8 *216:12 0.48
20 *216:13 *216:12 0.9
21 *216:14 *1217:A 4
22 *216:13 *216:14 0.48
*END

*D_NET *217 0.0218734

*CONN
*I *1218:B I *C 459.6 118.5 *L 0.033 *D OAI22X1
*I *932:B I *C 450 151.5 *L 0.0277 *D NOR2X1
*I *751:Y O *C 423.6 91.5 *L 0 *D INVX2

*CAP
1 *1218:B 0.00028335
2 *932:B 0.00081888
3 *751:Y 0.00041594
4 *217:3 0.00552285
5 *217:4 0.00251574
6 *217:5 0.00329137
7 *217:6 0.00329137
8 *217:7 0.00043431
9 *217:8 0.00043431
10 *217:9 0.00058595
11 *217:10 0.00098889
12 *217:11 0.00329046

*RES
1 *932:B *217:10 0.945
2 *217:11 *217:10 4
3 *217:3 *1218:B 4
4 *217:3 *217:11 3.3
5 *217:4 *217:3 2.4
6 *217:5 *217:4 4
7 *217:6 *217:5 1.04
8 *217:7 *217:6 4
9 *217:8 *217:7 0.3
10 *751:Y *217:9 0.48
11 *217:9 *217:8 4
*END

*D_NET *218 0.0354438

*CONN
*I *1140:C I *C 200.4 274.5 *L 0.0325 *D OAI22X1
*I *1090:C I *C 202.8 295.5 *L 0.0325 *D OAI22X1
*I *881:B I *C 181.2 151.5 *L 0.033 *D OAI22X1
*I *752:Y O *C 186 178.5 *L 0 *D INVX2

*CAP
1 *1140:C 0.00028335
2 *1090:C 0.00028335
3 *881:B 0.00042921
4 *752:Y 0.00028335
5 *218:4 0.0061568
6 *218:5 0.00866686
7 *218:6 0.00279341
8 *218:7 0.00059922
9 *218:8 0.00154855
10 *218:9 0.00154855
11 *218:10 0.00138973
12 *218:11 0.00044713
13 *218:12 0.00049698
14 *218:13 0.00191205
15 *218:14 0.00434733
16 *218:15 0.00281833
17 *218:16 0.00143958

*RES
1 *218:11 *1090:C 4
2 *218:12 *218:11 0.3
3 *218:13 *218:12 0.24
4 *218:14 *1140:C 4
5 *218:14 *218:13 1.8
6 *218:15 *218:14 2.4
7 *218:16 *218:15 0.24
8 *881:B *218:7 0.465
9 *218:10 *218:16 1.2
10 *218:6 *218:7 4
11 *218:8 *218:10 4
12 *218:6 *218:5 2.7
13 *218:5 *752:Y 4
14 *218:9 *218:8 0.4
15 *218:5 *218:4 6
16 *218:4 *218:9 4
*END

*D_NET *219 0.0222402

*CONN
*I *1142:C I *C 306 235.5 *L 0.0325 *D OAI22X1
*I *1092:C I *C 308.4 274.5 *L 0.0325 *D OAI22X1
*I *883:B I *C 354 238.5 *L 0.033 *D OAI22X1
*I *753:Y O *C 327.6 238.5 *L 0 *D INVX2

*CAP
1 *1142:C 0.00020796
2 *1092:C 0.00028335
3 *883:B 0.00067099
4 *753:Y 0.00019498
5 *219:4 0.00402332
6 *219:5 0.00075828
7 *219:6 0.000841
8 *219:7 0.00354839
9 *219:8 0.00193322
10 *219:9 0.00294031
11 *219:10 0.00139984
12 *219:11 0.00045335
13 *219:12 0.00036499
14 *219:13 0.00037797
15 *219:14 0.0004491
16 *219:15 0.00045335
17 *219:16 0.0004491
18 *219:8 *293:2 0.00069754
19 *219:9 *293:3 0.00069754
20 *219:9 *293:2 0.00069754
21 *219:10 *293:3 0.00069754
22 *219:8 *293:9 5.027e-05
23 *219:9 *293:8 5.027e-05

*RES
1 *1142:C *219:13 0.24
2 *219:6 *883:B 0.705
3 *219:5 *219:13 4
4 *219:7 *1092:C 4
5 *219:14 *219:6 4
6 *219:5 *219:4 0.6
7 *219:4 *219:7 3.3
8 *219:14 *219:16 0.3
9 *219:10 *219:4 4
10 *219:8 *219:16 4
11 *219:10 *219:9 0.56
12 *219:9 *219:8 0.72
13 *219:12 *753:Y 0.225
14 *219:15 *219:9 4
15 *219:11 *219:12 4
16 *219:11 *219:15 0.3
*END

*D_NET *220 0.0337542

*CONN
*I *1140:A I *C 190.8 274.5 *L 0.0323 *D OAI22X1
*I *1090:A I *C 193.2 295.5 *L 0.0323 *D OAI22X1
*I *885:B I *C 174 178.5 *L 0.033 *D OAI22X1
*I *754:Y O *C 181.2 178.5 *L 0 *D INVX2

*CAP
1 *1140:A 0.00028335
2 *1090:A 0.00019498
3 *885:B 0.00059792
4 *754:Y 0.0007929
5 *220:4 0.0081511
6 *220:5 0.0081511
7 *220:6 0.0015369
8 *220:7 0.0015369
9 *220:8 0.00218021
10 *220:9 0.00218021
11 *220:10 0.00271108
12 *220:11 0.00047919
13 *220:12 0.00085659
14 *220:13 0.00085659
15 *220:14 0.00036499
16 *220:15 0.00251524
17 *220:16 0.00036499

*RES
1 *220:16 *1090:A 0.225
2 *220:15 *220:16 4
3 *220:10 *1140:A 4
4 *220:10 *220:15 2.1
5 *220:11 *220:10 0.3
6 *220:13 *220:11 4
7 *220:13 *220:12 0.16
8 *220:4 *220:12 4
9 *220:5 *220:4 7.5
10 *220:6 *220:5 4
11 *220:7 *220:6 0.4
12 *885:B *754:Y 0.69
13 *220:8 *220:7 4
14 *220:9 *220:8 1.8
15 *754:Y *220:14 0.225
16 *220:14 *220:9 4
*END

*D_NET *221 0.023711

*CONN
*I *1142:A I *C 296.4 235.5 *L 0.0323 *D OAI22X1
*I *1092:A I *C 298.8 274.5 *L 0.0323 *D OAI22X1
*I *887:B I *C 308.4 211.5 *L 0.033 *D OAI22X1
*I *755:Y O *C 291.6 211.5 *L 0 *D INVX2

*CAP
1 *1142:A 0.00081888
2 *1092:A 0.00102686
3 *887:B 0.00028335
4 *755:Y 0.00040294
5 *221:4 0.00047919
6 *221:5 0.00047919
7 *221:6 0.00587867
8 *221:7 0.00250434
9 *221:8 0.00047919
10 *221:9 0.00237306
11 *221:10 0.00237306
12 *221:11 0.00057295
13 *221:12 0.00098889
14 *221:13 0.00119687
15 *221:14 0.00385352

*RES
1 *221:13 *1092:A 1.185
2 *221:11 *755:Y 0.465
3 *221:12 *1142:A 0.945
4 *221:14 *221:13 4
5 *221:5 *887:B 4
6 *221:8 *221:11 4
7 *221:6 *221:12 4
8 *221:6 *221:14 3.9
9 *221:5 *221:4 0.3
10 *221:8 *221:7 0.3
11 *221:7 *221:6 2.1
12 *221:10 *221:4 4
13 *221:9 *221:7 4
14 *221:9 *221:10 0.72
*END

*D_NET *222 0.0107703

*CONN
*I *1139:C I *C 157.2 235.5 *L 0.0325 *D OAI22X1
*I *1089:C I *C 157.2 274.5 *L 0.0325 *D OAI22X1
*I *890:B I *C 162 238.5 *L 0.033 *D OAI22X1
*I *756:Y O *C 159.6 271.5 *L 0 *D INVX2

*CAP
1 *1139:C 0.00028335
2 *1089:C 0.00028335
3 *890:B 0.00019498
4 *756:Y 0.00028335
5 *222:4 0.00036499
6 *222:5 0.00047919
7 *222:6 0.00384863
8 *222:7 0.00038987
9 *222:8 0.0038111
10 *222:9 0.00044166
11 *222:10 0.00038987

*RES
1 *222:10 *756:Y 4
2 *222:9 *1089:C 4
3 *222:4 *890:B 0.225
4 *222:8 *222:10 0.24
5 *222:8 *222:9 0.3
6 *222:7 *222:4 4
7 *222:6 *222:8 3.3
8 *222:6 *222:7 0.24
9 *222:5 *222:6 0.3
10 *1139:C *222:5 4
*END

*D_NET *223 0.00080588

*CONN
*I *892:B I *C 270 358.5 *L 0.033 *D OAI22X1
*I *757:Y O *C 265.2 358.5 *L 0 *D INVX2

*CAP
1 *892:B 0.00040294
2 *757:Y 0.00040294

*RES
1 *757:Y *892:B 0.465
*END

*D_NET *224 0.013922

*CONN
*I *1139:A I *C 147.6 235.5 *L 0.0323 *D OAI22X1
*I *1089:A I *C 147.6 274.5 *L 0.0323 *D OAI22X1
*I *894:B I *C 138 238.5 *L 0.033 *D OAI22X1
*I *758:Y O *C 145.2 271.5 *L 0 *D INVX2

*CAP
1 *1139:A 0.00028335
2 *1089:A 0.00028335
3 *894:B 0.00028335
4 *758:Y 0.00019498
5 *224:4 0.00047297
6 *224:5 0.00075631
7 *224:6 0.00146575
8 *224:7 0.00060973
9 *224:8 0.00058595
10 *224:9 0.00066759
11 *224:10 0.00409327
12 *224:11 0.00308087
13 *224:12 0.00043741
14 *224:13 0.00070712

*RES
1 *224:7 *1089:A 4
2 *224:13 *224:7 0.48
3 *224:12 *224:13 0.3
4 *224:9 *758:Y 0.225
5 *224:9 *224:12 4
6 *224:5 *1139:A 4
7 *224:8 *224:9 0.48
8 *224:5 *224:6 0.6
9 *224:11 *224:8 4
10 *224:10 *224:6 0.96
11 *224:10 *224:11 3
12 *224:4 *894:B 4
13 *224:4 *224:10 0.3
*END

*D_NET *225 0.0259361

*CONN
*I *1225:C I *C 471.6 55.5 *L 0.0325 *D OAI22X1
*I *1036:B I *C 466.8 151.5 *L 0.033 *D OAI21X1
*I *904:A I *C 471.6 154.5 *L 0.0323 *D OAI22X1
*I *759:Y O *C 471.6 31.5 *L 0 *D INVX2

*CAP
1 *1225:C 0.00028335
2 *1036:B 0.00018198
3 *904:A 0.00023916
4 *759:Y 0.00028335
5 *225:4 0.00682761
6 *225:5 0.00309337
7 *225:6 0.00229468
8 *225:7 0.00879223
9 *225:8 0.00044661
10 *225:9 0.00044712
11 *225:10 0.00304666

*RES
1 *225:9 *904:A 0.27
2 *1036:B *225:8 0.21
3 *225:8 *225:9 0.24
4 *225:10 *225:8 4
5 *225:6 *759:Y 4
6 *225:5 *225:10 3
7 *225:6 *225:7 2.4
8 *225:7 *1225:C 4
9 *225:5 *225:4 0.24
10 *225:7 *225:4 6.6
*END

*D_NET *226 0.00527322

*CONN
*I *1225:B I *C 478.8 58.5 *L 0.033 *D OAI22X1
*I *760:Y O *C 469.2 58.5 *L 0 *D INVX2

*CAP
1 *1225:B 0.00028335
2 *760:Y 0.00028335
3 *226:2 0.00050503
4 *226:3 0.00050503
5 *226:4 0.0013432
6 *226:5 0.0013432
7 *226:6 0.00050503
8 *226:7 0.00050503

*RES
1 *226:7 *1225:B 4
2 *226:6 *226:7 0.3
3 *226:4 *226:6 4
4 *226:5 *226:4 0.32
5 *226:3 *226:5 4
6 *226:3 *226:2 0.3
7 *760:Y *226:2 4
*END

*D_NET *227 0.0316092

*CONN
*I *1183:C I *C 80.4 55.5 *L 0.0325 *D OAI22X1
*I *1133:C I *C 90 115.5 *L 0.0325 *D OAI22X1
*I *825:B I *C 27.6 58.5 *L 0.033 *D OAI22X1
*I *761:Y O *C 22.8 58.5 *L 0 *D INVX2

*CAP
1 *1183:C 0.00028335
2 *1133:C 0.00041594
3 *825:B 0.00028335
4 *761:Y 0.00028335
5 *227:4 0.0004675
6 *227:5 0.0004675
7 *227:6 0.00069257
8 *227:7 0.00634905
9 *227:8 0.00047919
10 *227:9 0.00047919
11 *227:10 0.00080996
12 *227:11 0.00080996
13 *227:12 0.00651307
14 *227:13 0.00085659
15 *227:14 0.00591632
16 *227:15 0.00591632
17 *227:16 0.00058595

*RES
1 *227:16 *1133:C 0.48
2 *227:15 *227:16 4
3 *227:10 *1183:C 4
4 *227:14 *227:15 5.4
5 *227:9 *825:B 4
6 *227:10 *227:11 0.6
7 *227:13 *227:14 4
8 *227:9 *227:8 0.3
9 *227:12 *227:11 4
10 *227:12 *227:13 0.16
11 *227:7 *227:8 4
12 *227:7 *227:12 1.76
13 *227:6 *227:7 0.16
14 *227:5 *227:6 4
15 *227:4 *761:Y 4
16 *227:4 *227:5 0.3
*END

*D_NET *228 0.0441817

*CONN
*I *1185:C I *C 310.8 34.5 *L 0.0325 *D OAI22X1
*I *1135:C I *C 310.8 94.5 *L 0.0325 *D OAI22X1
*I *826:B I *C 373.2 118.5 *L 0.033 *D OAI22X1
*I *762:Y O *C 370.8 31.5 *L 0 *D INVX2

*CAP
1 *1185:C 0.00028335
2 *1135:C 0.00028335
3 *826:B 0.00028335
4 *762:Y 0.00040294
5 *228:4 0.00519326
6 *228:5 0.00563614
7 *228:6 0.00591709
8 *228:7 0.00530121
9 *228:8 0.00100863
10 *228:9 0.0009914
11 *228:10 0.0009914
12 *228:11 0.00072623
13 *228:12 0.00057295
14 *228:13 0.00729873
15 *228:14 0.00729873
16 *228:6 *542:6 0.00099649
17 *228:7 *542:7 0.00099649

*RES
1 *228:12 *762:Y 0.465
2 *228:14 *826:B 4
3 *228:10 *228:12 4
4 *228:13 *228:14 7.8
5 *228:10 *228:9 0.9
6 *228:8 *228:13 4
7 *228:11 *1185:C 4
8 *228:4 *1135:C 4
9 *228:6 *228:9 4
10 *228:6 *228:8 0.24
11 *228:11 *228:5 0.6
12 *228:5 *228:4 5.4
13 *228:7 *228:6 1.84
14 *228:7 *228:5 4
*END

*D_NET *229 0.0258303

*CONN
*I *1183:A I *C 90 55.5 *L 0.0323 *D OAI22X1
*I *1133:A I *C 99.6 115.5 *L 0.0323 *D OAI22X1
*I *827:B I *C 116.4 58.5 *L 0.033 *D OAI22X1
*I *763:Y O *C 97.2 91.5 *L 0 *D INVX2

*CAP
1 *1183:A 0.00028335
2 *1133:A 0.00028335
3 *827:B 0.00087706
4 *763:Y 0.00061092
5 *229:4 0.00104707
6 *229:5 0.00047919
7 *229:6 0.00047919
8 *229:7 0.00315947
9 *229:8 0.00613804
10 *229:9 0.00372638
11 *229:10 0.00107599
12 *229:11 0.00107599
13 *229:12 0.0004491
14 *229:13 0.0004491
15 *229:14 0.00208368
16 *229:15 0.00208368
17 *229:16 0.00074781
18 *229:17 0.00078093

*RES
1 *229:13 *1133:A 4
2 *229:13 *229:12 0.3
3 *229:10 *229:12 4
4 *229:11 *229:10 0.32
5 *229:4 *827:B 0.945
6 *229:7 *229:11 4
7 *229:17 *763:Y 0.705
8 *229:6 *229:4 4
9 *229:16 *1183:A 4
10 *229:8 *229:7 2.7
11 *229:8 *229:17 4
12 *229:6 *229:5 0.3
13 *229:16 *229:9 0.6
14 *229:9 *229:8 3
15 *229:15 *229:5 4
16 *229:14 *229:9 4
17 *229:14 *229:15 0.56
*END

*D_NET *230 0.0149835

*CONN
*I *1185:A I *C 301.2 34.5 *L 0.0323 *D OAI22X1
*I *1135:A I *C 301.2 94.5 *L 0.0323 *D OAI22X1
*I *828:B I *C 308.4 58.5 *L 0.033 *D OAI22X1
*I *764:Y O *C 298.8 31.5 *L 0 *D INVX2

*CAP
1 *1185:A 0.00043575
2 *1135:A 0.00028335
3 *828:B 0.00028335
4 *764:Y 0.00020796
5 *230:4 0.0004737
6 *230:5 0.00047494
7 *230:6 0.0009551
8 *230:7 0.00608976
9 *230:8 0.00313353
10 *230:9 0.00264608

*RES
1 *230:5 *828:B 4
2 *230:5 *230:6 0.3
3 *230:8 *1135:A 4
4 *230:7 *230:6 0.72
5 *230:7 *230:8 3.3
6 *230:9 *230:7 2.7
7 *1185:A *230:9 4
8 *764:Y *230:4 0.24
9 *230:4 *1185:A 0.3
*END

*D_NET *231 0.0154391

*CONN
*I *1181:C I *C 68.4 115.5 *L 0.0325 *D OAI22X1
*I *1131:C I *C 80.4 115.5 *L 0.0325 *D OAI22X1
*I *829:B I *C 66 151.5 *L 0.033 *D OAI22X1
*I *765:Y O *C 61.2 151.5 *L 0 *D INVX2

*CAP
1 *1181:C 0.00028335
2 *1131:C 0.00028335
3 *829:B 0.00019498
4 *765:Y 0.00020796
5 *231:4 0.0013883
6 *231:5 0.00164013
7 *231:6 0.00064458
8 *231:7 0.00352035
9 *231:8 0.00080799
10 *231:9 0.00080799
11 *231:10 0.00084006
12 *231:11 0.00084006
13 *231:12 0.00045961
14 *231:13 0.00352035

*RES
1 *231:11 *1131:C 4
2 *765:Y *231:12 0.24
3 *231:12 *829:B 0.225
4 *231:8 *1181:C 4
5 *231:11 *231:10 0.6
6 *231:13 *231:12 4
7 *231:8 *231:9 0.6
8 *231:4 *231:10 4
9 *231:7 *231:13 3
10 *231:5 *231:9 4
11 *231:5 *231:4 0.4
12 *231:6 *231:7 4
13 *231:6 *231:5 0.16
*END

*D_NET *232 0.00077988

*CONN
*I *830:B I *C 274.8 118.5 *L 0.033 *D OAI22X1
*I *766:Y O *C 270 118.5 *L 0 *D INVX2

*CAP
1 *830:B 0.00038994
2 *766:Y 0.00038994

*RES
1 *766:Y *830:B 0.45
*END

*D_NET *233 0.0158464

*CONN
*I *1181:A I *C 58.8 115.5 *L 0.0323 *D OAI22X1
*I *1131:A I *C 70.8 115.5 *L 0.0323 *D OAI22X1
*I *831:B I *C 37.2 118.5 *L 0.033 *D OAI22X1
*I *767:Y O *C 30 118.5 *L 0 *D INVX2

*CAP
1 *1181:A 0.00096715
2 *1131:A 0.00028335
3 *831:B 0.00092242
4 *767:Y 0.00063907
5 *233:4 0.00106228
6 *233:5 0.00106228
7 *233:6 0.00258646
8 *233:7 0.00258646
9 *233:8 0.00050503
10 *233:9 0.00050503
11 *233:10 0.00075828
12 *233:11 0.00075828
13 *233:12 0.00078838
14 *233:13 0.00038987
15 *233:14 0.0008949
16 *233:15 0.00113716

*RES
1 *767:Y *831:B 0.705
2 *233:8 *831:B 4
3 *233:9 *233:8 0.3
4 *233:5 *233:9 4
5 *233:10 *1131:A 4
6 *233:5 *233:4 0.32
7 *233:11 *233:10 0.6
8 *233:13 *233:4 4
9 *233:15 *1181:A 0.945
10 *233:6 *233:11 4
11 *233:13 *233:14 0.24
12 *233:14 *233:15 4
13 *233:7 *233:6 0.72
14 *233:12 *233:14 0.6
15 *233:12 *233:7 4
*END

*D_NET *234 0.0379165

*CONN
*I *1224:C I *C 486 94.5 *L 0.0325 *D OAI22X1
*I *1026:B I *C 454.8 211.5 *L 0.033 *D OAI21X1
*I *906:A I *C 486 175.5 *L 0.0323 *D OAI22X1
*I *768:Y O *C 486 118.5 *L 0 *D INVX2

*CAP
1 *1224:C 0.00028335
2 *1026:B 0.0006239
3 *906:A 0.0006239
4 *768:Y 0.00028335
5 *234:4 0.0004491
6 *234:5 0.0030425
7 *234:6 0.00047494
8 *234:7 0.00520152
9 *234:8 0.00549009
10 *234:9 0.00228325
11 *234:10 0.00043575
12 *234:11 0.00088964
13 *234:12 0.00079391
14 *234:13 0.00341697
15 *234:14 0.00341697
16 *234:15 0.00352942
17 *234:16 0.00352942
18 *234:7 *332:4 0.00153469
19 *234:8 *332:2 0.00153469
20 *234:5 *332:4 3.299e-05
21 *234:9 *332:2 3.299e-05
22 *234:5 *332:4 6.6e-06
23 *234:9 *332:2 6.6e-06

*RES
1 *1026:B *234:11 0.72
2 *234:10 *234:11 0.3
3 *234:14 *234:10 4
4 *234:13 *234:14 3
5 *234:15 *234:13 4
6 *234:15 *234:16 1.04
7 *234:9 *1224:C 4
8 *234:4 *768:Y 4
9 *906:A *234:12 0.72
10 *234:6 *234:16 4
11 *234:9 *234:5 2.1
12 *234:5 *234:4 0.3
13 *234:7 *234:12 4
14 *234:7 *234:6 0.3
15 *234:5 *234:8 0.72
16 *234:8 *234:7 6
*END

*D_NET *235 0.00657446

*CONN
*I *1224:B I *C 478.8 91.5 *L 0.033 *D OAI22X1
*I *769:Y O *C 481.2 118.5 *L 0 *D INVX2

*CAP
1 *1224:B 0.00028335
2 *769:Y 0.00028335
3 *235:2 0.00078215
4 *235:3 0.00082886
5 *235:4 0.00222173
6 *235:5 0.00217502

*RES
1 *235:2 *769:Y 4
2 *235:3 *235:2 0.6
3 *235:4 *235:3 0.24
4 *235:5 *1224:B 4
5 *235:5 *235:4 2.1
*END

*D_NET *236 0.0323018

*CONN
*I *1176:C I *C 92.4 235.5 *L 0.0325 *D OAI22X1
*I *1126:C I *C 99.6 274.5 *L 0.0325 *D OAI22X1
*I *833:B I *C 27.6 211.5 *L 0.033 *D OAI22X1
*I *770:Y O *C 27.6 238.5 *L 0 *D INVX2

*CAP
1 *1176:C 0.00040294
2 *1126:C 0.00028335
3 *833:B 0.00028335
4 *770:Y 0.00028335
5 *236:4 0.00254455
6 *236:5 0.00207705
7 *236:6 0.00635115
8 *236:7 0.00635115
9 *236:8 0.00075085
10 *236:9 0.00111293
11 *236:10 0.00111293
12 *236:11 0.00155661
13 *236:12 0.00155661
14 *236:13 0.00047297
15 *236:14 0.00338933
16 *236:15 0.00057295
17 *236:16 0.00319971

*RES
1 *236:9 *1126:C 4
2 *236:10 *236:9 0.9
3 *236:11 *236:10 4
4 *236:12 *236:11 0.4
5 *236:15 *1176:C 0.465
6 *236:16 *236:12 4
7 *236:14 *236:15 4
8 *236:14 *236:16 3
9 *236:5 *833:B 4
10 *236:8 *770:Y 4
11 *236:13 *236:14 0.3
12 *236:5 *236:4 2.1
13 *236:4 *236:8 0.6
14 *236:6 *236:13 4
15 *236:7 *236:4 4
16 *236:7 *236:6 2
*END

*D_NET *237 0.0135907

*CONN
*I *1178:C I *C 327.6 214.5 *L 0.0325 *D OAI22X1
*I *1128:C I *C 322.8 235.5 *L 0.0325 *D OAI22X1
*I *834:B I *C 354 211.5 *L 0.033 *D OAI22X1
*I *771:Y O *C 349.2 211.5 *L 0 *D INVX2

*CAP
1 *1178:C 0.00028335
2 *1128:C 0.00028335
3 *834:B 0.00028335
4 *771:Y 0.00020796
5 *237:4 0.00047919
6 *237:5 0.00047919
7 *237:6 0.00044713
8 *237:7 0.00044713
9 *237:8 0.00038673
10 *237:9 0.00169068
11 *237:10 0.00060346
12 *237:11 0.00237993
13 *237:12 0.00221987
14 *237:13 0.00037797
15 *237:14 0.00215967
16 *237:15 0.00086174

*RES
1 *237:13 *771:Y 0.24
2 *237:5 *834:B 4
3 *237:7 *237:13 4
4 *237:5 *237:4 0.3
5 *237:10 *1128:C 4
6 *237:7 *237:6 0.3
7 *237:15 *237:4 4
8 *237:10 *237:11 0.48
9 *237:14 *237:6 4
10 *237:14 *237:15 0.24
11 *237:12 *1178:C 4
12 *237:12 *237:11 2.1
13 *237:9 *237:14 0.56
14 *237:12 *237:8 0.24
15 *237:8 *237:9 4
*END

*D_NET *238 0.023185

*CONN
*I *1176:A I *C 102 235.5 *L 0.0323 *D OAI22X1
*I *1126:A I *C 109.2 274.5 *L 0.0323 *D OAI22X1
*I *835:B I *C 114 211.5 *L 0.033 *D OAI22X1
*I *772:Y O *C 97.2 271.5 *L 0 *D INVX2

*CAP
1 *1176:A 0.00028335
2 *1126:A 0.00028335
3 *835:B 0.00041594
4 *772:Y 0.00028335
5 *238:4 0.0023494
6 *238:5 0.00239925
7 *238:6 0.00080465
8 *238:7 0.00080465
9 *238:8 0.00038987
10 *238:9 0.00058595
11 *238:10 0.00215827
12 *238:11 0.00047919
13 *238:12 0.00191694
14 *238:13 0.00164723
15 *238:14 0.00334459
16 *238:15 0.00177204
17 *238:16 0.00126438
18 *238:17 0.0007748
19 *238:4 *477:4 0.00061388
20 *238:5 *477:2 0.00061388

*RES
1 *238:17 *1126:A 4
2 *238:9 *835:B 0.48
3 *238:13 *772:Y 4
4 *238:16 *238:17 0.6
5 *238:8 *238:9 4
6 *238:12 *238:13 1.5
7 *238:15 *238:16 0.72
8 *238:5 *238:8 0.24
9 *238:11 *1176:A 4
10 *238:12 *238:14 0.48
11 *238:14 *238:15 1.2
12 *238:5 *238:4 2.7
13 *238:11 *238:10 0.3
14 *238:10 *238:14 1.8
15 *238:7 *238:4 4
16 *238:6 *238:10 4
17 *238:6 *238:7 0.16
*END

*D_NET *239 0.0199059

*CONN
*I *1178:A I *C 318 214.5 *L 0.0323 *D OAI22X1
*I *1128:A I *C 313.2 235.5 *L 0.0323 *D OAI22X1
*I *836:B I *C 344.4 178.5 *L 0.033 *D OAI22X1
*I *773:Y O *C 344.4 211.5 *L 0 *D INVX2

*CAP
1 *1178:A 0.0004916
2 *1128:A 0.00028335
3 *836:B 0.00028335
4 *773:Y 0.00150517
5 *239:4 0.0004675
6 *239:5 0.0004675
7 *239:6 0.00170597
8 *239:7 0.00170597
9 *239:8 0.00320163
10 *239:9 0.00320163
11 *239:10 0.00127896
12 *239:11 0.00127896
13 *239:12 0.00038673
14 *239:13 0.00038673
15 *239:14 0.00139183
16 *239:15 0.00038392
17 *239:16 0.00074539
18 *239:17 0.00073973

*RES
1 *239:9 *836:B 4
2 *239:9 *239:8 3.3
3 *773:Y *239:8 4
4 *239:6 *1128:A 4
5 *239:7 *239:6 1.5
6 *239:14 *773:Y 1.41
7 *239:15 *239:7 4
8 *239:13 *239:14 4
9 *239:15 *239:16 0.24
10 *239:12 *239:13 0.24
11 *239:17 *239:16 0.6
12 *239:11 *239:12 4
13 *239:17 *1178:A 0.21
14 *239:10 *239:11 0.32
15 *239:5 *239:10 4
16 *239:4 *1178:A 4
17 *239:5 *239:4 0.3
*END

*D_NET *240 0.0214161

*CONN
*I *1175:C I *C 58.8 274.5 *L 0.0325 *D OAI22X1
*I *1125:C I *C 78 274.5 *L 0.0325 *D OAI22X1
*I *837:B I *C 63.6 238.5 *L 0.033 *D OAI22X1
*I *774:Y O *C 68.4 298.5 *L 0 *D INVX2

*CAP
1 *1175:C 0.00028335
2 *1125:C 0.00028335
3 *837:B 0.00040294
4 *774:Y 0.00086003
5 *240:4 0.00153212
6 *240:5 0.00187199
7 *240:6 0.00062322
8 *240:7 0.00410669
9 *240:8 0.0036176
10 *240:9 0.00211579
11 *240:10 0.00211579
12 *240:11 0.00077244
13 *240:12 0.00057295
14 *240:13 0.00103004
15 *240:4 *474:3 0.00046041
16 *240:5 *474:2 0.00046041
17 *240:5 *474:3 0.00015347
18 *240:6 *474:2 0.00015347

*RES
1 *774:Y *240:13 0.96
2 *240:6 *1125:C 4
3 *240:4 *240:13 4
4 *240:6 *240:5 0.6
5 *240:5 *240:4 1.8
6 *240:9 *240:5 4
7 *240:10 *240:9 0.64
8 *240:11 *240:10 4
9 *240:7 *1175:C 4
10 *240:7 *240:11 0.6
11 *240:8 *240:7 3.6
12 *240:12 *240:8 4
13 *240:12 *837:B 0.465
*END

*D_NET *241 0.00080588

*CONN
*I *838:B I *C 272.4 298.5 *L 0.033 *D OAI22X1
*I *775:Y O *C 267.6 298.5 *L 0 *D INVX2

*CAP
1 *838:B 0.00040294
2 *775:Y 0.00040294

*RES
1 *775:Y *838:B 0.465
*END

*D_NET *242 0.022097

*CONN
*I *1175:A I *C 49.2 274.5 *L 0.0323 *D OAI22X1
*I *1125:A I *C 68.4 274.5 *L 0.0323 *D OAI22X1
*I *839:B I *C 37.2 238.5 *L 0.033 *D OAI22X1
*I *776:Y O *C 22.8 238.5 *L 0 *D INVX2

*CAP
1 *1175:A 0.000238
2 *1125:A 0.00028335
3 *839:B 0.00028335
4 *776:Y 0.00020796
5 *242:4 0.00045335
6 *242:5 0.00045335
7 *242:6 0.00229356
8 *242:7 0.00229356
9 *242:8 0.00370324
10 *242:9 0.00354493
11 *242:10 0.00040801
12 *242:11 0.00133809
13 *242:12 0.0024444
14 *242:13 0.00149906
15 *242:14 0.0004675
16 *242:15 0.0004675
17 *242:16 0.00037797
18 *242:17 0.00044166
19 *242:18 0.0004491
20 *242:19 0.0004491

*RES
1 *242:19 *1125:A 4
2 *776:Y *242:16 0.24
3 *242:18 *242:19 0.3
4 *242:14 *242:16 4
5 *242:10 *1175:A 0.24
6 *242:6 *242:18 4
7 *242:15 *242:14 0.3
8 *242:4 *839:B 4
9 *242:17 *242:10 4
10 *242:7 *242:6 0.72
11 *242:13 *242:15 4
12 *242:5 *242:4 0.3
13 *242:8 *242:17 0.3
14 *242:8 *242:7 4
15 *242:13 *242:12 0.4
16 *242:12 *242:5 4
17 *242:9 *242:8 3.6
18 *242:12 *242:11 0.32
19 *242:11 *242:9 4
*END

*D_NET *243 0.0408843

*CONN
*I *1223:C I *C 548.4 34.5 *L 0.0325 *D OAI22X1
*I *1041:B I *C 546 178.5 *L 0.033 *D OAI21X1
*I *908:A I *C 519.6 154.5 *L 0.0323 *D OAI21X1
*I *777:Y O *C 524.4 31.5 *L 0 *D INVX2

*CAP
1 *1223:C 0.00028335
2 *1041:B 0.00038994
3 *908:A 0.00071399
4 *777:Y 0.00020796
5 *243:4 0.00791746
6 *243:5 0.00802481
7 *243:6 0.00448667
8 *243:7 0.00298396
9 *243:8 0.00081718
10 *243:9 0.00081718
11 *243:10 0.00242499
12 *243:11 0.00242499
13 *243:12 0.00043741
14 *243:13 0.00037797
15 *243:14 0.00038673
16 *243:15 0.00038673
17 *243:16 0.000884
18 *243:17 0.00055995
19 *243:18 0.00183277
20 *243:19 0.00077987
21 *243:20 0.00077987
22 *243:21 0.00148328
23 *243:22 0.00148328

*RES
1 *243:15 *1223:C 4
2 *243:14 *243:15 0.24
3 *243:17 *1041:B 0.45
4 *777:Y *243:13 0.24
5 *243:10 *243:14 4
6 *243:20 *243:17 4
7 *243:12 *243:13 4
8 *243:11 *243:10 0.64
9 *243:19 *243:20 0.6
10 *243:12 *243:5 0.3
11 *243:5 *243:11 4
12 *243:22 *243:19 4
13 *243:5 *243:4 8.4
14 *243:21 *243:22 0.48
15 *243:4 *243:9 0.24
16 *908:A *243:16 0.72
17 *243:18 *243:21 4
18 *243:9 *243:8 0.6
19 *243:6 *243:16 4
20 *243:6 *243:18 1.8
21 *243:7 *243:8 0.24
22 *243:7 *243:6 3
*END

*D_NET *244 0.0157654

*CONN
*I *1223:B I *C 541.2 31.5 *L 0.033 *D OAI22X1
*I *911:B I *C 507.6 58.5 *L 0.0277 *D NOR2X1
*I *778:Y O *C 502.8 31.5 *L 0 *D INVX2

*CAP
1 *1223:B 0.00028335
2 *911:B 0.00028335
3 *778:Y 0.00040294
4 *244:3 0.00212176
5 *244:4 0.00254125
6 *244:5 0.00075085
7 *244:6 0.00075085
8 *244:7 0.00367762
9 *244:8 0.00367762
10 *244:9 0.00070284
11 *244:10 0.00057295

*RES
1 *778:Y *244:10 0.465
2 *244:6 *1223:B 4
3 *244:9 *244:10 4
4 *244:3 *911:B 4
5 *244:6 *244:5 0.6
6 *244:9 *244:4 0.6
7 *244:4 *244:3 2.1
8 *244:7 *244:5 4
9 *244:8 *244:4 4
10 *244:8 *244:7 1.12
*END

*D_NET *245 0.00758796

*CONN
*I *1170:C I *C 198 34.5 *L 0.0325 *D OAI22X1
*I *1120:C I *C 198 55.5 *L 0.0325 *D OAI22X1
*I *841:B I *C 207.6 58.5 *L 0.033 *D OAI22X1
*I *779:Y O *C 200.4 58.5 *L 0 *D INVX2

*CAP
1 *1170:C 0.00028335
2 *1120:C 0.00028335
3 *841:B 0.00058492
4 *779:Y 0.00086827
5 *245:4 0.0005032
6 *245:5 0.00045335
7 *245:6 0.0022525
8 *245:7 0.00235902

*RES
1 *779:Y *841:B 0.675
2 *245:6 *1170:C 4
3 *245:7 *1120:C 4
4 *245:6 *245:7 2.1
5 *245:5 *779:Y 4
6 *245:7 *245:4 0.24
7 *245:4 *245:5 0.3
*END

*D_NET *246 0.0201715

*CONN
*I *1172:C I *C 339.6 34.5 *L 0.0325 *D OAI22X1
*I *1122:C I *C 344.4 55.5 *L 0.0325 *D OAI22X1
*I *842:B I *C 387.6 31.5 *L 0.033 *D OAI22X1
*I *780:Y O *C 375.6 31.5 *L 0 *D INVX2

*CAP
1 *1172:C 0.00028335
2 *1122:C 0.00028335
3 *842:B 0.00065393
4 *780:Y 0.00020796
5 *246:4 0.00084461
6 *246:5 0.00080687
7 *246:6 0.00080687
8 *246:7 0.00082394
9 *246:8 0.00072819
10 *246:9 0.00339822
11 *246:10 0.00385008
12 *246:11 0.00072819
13 *246:12 0.00072819
14 *246:13 0.00037797
15 *246:14 0.0010127
16 *246:15 0.00127614
17 *246:16 0.0020913
18 *246:17 0.00126968

*RES
1 *246:14 *1172:C 4
2 *246:14 *246:15 0.9
3 *246:17 *1122:C 4
4 *246:15 *246:16 0.48
5 *246:16 *246:17 1.2
6 *246:13 *780:Y 0.24
7 *246:7 *842:B 0.72
8 *246:8 *246:16 0.6
9 *246:12 *246:13 4
10 *246:6 *246:7 4
11 *246:9 *246:8 4
12 *246:12 *246:11 0.6
13 *246:6 *246:5 0.6
14 *246:9 *246:10 0.96
15 *246:10 *246:11 4
16 *246:4 *246:5 4
17 *246:10 *246:4 0.24
*END

*D_NET *247 0.0124278

*CONN
*I *1170:A I *C 188.4 34.5 *L 0.0323 *D OAI22X1
*I *1120:A I *C 188.4 55.5 *L 0.0323 *D OAI22X1
*I *843:B I *C 166.8 58.5 *L 0.033 *D OAI22X1
*I *781:Y O *C 181.2 31.5 *L 0 *D INVX2

*CAP
1 *1170:A 0.00040294
2 *1120:A 0.00043109
3 *843:B 0.00019498
4 *781:Y 0.00020796
5 *247:4 0.00045335
6 *247:5 0.00195111
7 *247:6 0.00170778
8 *247:7 0.00170778
9 *247:8 0.00043575
10 *247:9 0.00178111
11 *247:10 0.0004737
12 *247:11 0.00093442
13 *247:12 0.00036499
14 *247:13 0.00038987
15 *247:14 0.00038987
16 *247:15 0.0006011

*RES
1 *843:B *247:12 0.225
2 *247:13 *247:12 4
3 *247:13 *247:14 0.24
4 *247:7 *247:14 4
5 *247:7 *247:6 0.4
6 *247:4 *247:6 4
7 *247:15 *1120:A 0.465
8 *781:Y *247:10 0.24
9 *247:5 *247:4 0.3
10 *247:5 *247:15 4
11 *247:10 *247:11 0.3
12 *247:11 *1170:A 0.465
13 *247:9 *247:5 1.8
14 *247:11 *247:8 0.3
15 *247:8 *247:9 4
*END

*D_NET *248 0.0201847

*CONN
*I *1172:A I *C 330 34.5 *L 0.0323 *D OAI22X1
*I *1122:A I *C 334.8 55.5 *L 0.0323 *D OAI22X1
*I *844:B I *C 356.4 58.5 *L 0.033 *D OAI22X1
*I *782:Y O *C 358.8 31.5 *L 0 *D INVX2

*CAP
1 *1172:A 0.00028335
2 *1122:A 0.00041621
3 *844:B 0.00083188
4 *782:Y 0.00019498
5 *248:4 0.00043741
6 *248:5 0.00196352
7 *248:6 0.00180946
8 *248:7 0.00075828
9 *248:8 0.00075828
10 *248:9 0.0011864
11 *248:10 0.00287007
12 *248:11 0.00207642
13 *248:12 0.00058622
14 *248:13 0.00100189
15 *248:14 0.00036499
16 *248:15 0.00232265
17 *248:16 0.00232265

*RES
1 *248:14 *782:Y 0.225
2 *248:13 *844:B 0.96
3 *248:15 *248:14 4
4 *248:7 *248:13 4
5 *248:15 *248:16 2.1
6 *248:12 *1122:A 0.45
7 *248:8 *248:7 0.6
8 *248:9 *248:16 4
9 *248:6 *1172:A 4
10 *248:4 *248:12 4
11 *248:10 *248:8 4
12 *248:10 *248:9 0.32
13 *248:6 *248:5 1.8
14 *248:5 *248:4 0.3
15 *248:11 *248:10 0.56
16 *248:11 *248:5 4
*END

*D_NET *249 0.0148642

*CONN
*I *1169:C I *C 140.4 34.5 *L 0.0325 *D OAI22X1
*I *1119:C I *C 135.6 94.5 *L 0.0325 *D OAI22X1
*I *845:B I *C 135.6 58.5 *L 0.033 *D OAI22X1
*I *783:Y O *C 142.8 31.5 *L 0 *D INVX2

*CAP
1 *1169:C 0.00028335
2 *1119:C 0.00028335
3 *845:B 0.00028335
4 *783:Y 0.00028335
5 *249:4 0.00051735
6 *249:5 0.00038987
7 *249:6 0.00073721
8 *249:7 0.00242348
9 *249:8 0.00233792
10 *249:9 0.00375456
11 *249:10 0.00357041

*RES
1 *249:10 *1119:C 4
2 *249:9 *845:B 4
3 *249:9 *249:10 3.6
4 *249:6 *249:9 0.3
5 *249:6 *249:7 0.48
6 *249:5 *783:Y 4
7 *249:8 *1169:C 4
8 *249:8 *249:7 2.1
9 *249:4 *249:5 0.24
10 *249:4 *249:8 0.3
*END

*D_NET *250 0.00635088

*CONN
*I *846:B I *C 277.2 58.5 *L 0.033 *D OAI22X1
*I *784:Y O *C 277.2 31.5 *L 0 *D INVX2

*CAP
1 *846:B 0.00028335
2 *784:Y 0.00028335
3 *250:2 0.00227821
4 *250:3 0.00227821
5 *250:3 0.00061388
6 *250:2 0.00061388

*RES
1 *250:3 *846:B 4
2 *250:2 *250:3 2.7
3 *784:Y *250:2 4
*END

*D_NET *251 0.0222956

*CONN
*I *1169:A I *C 130.8 34.5 *L 0.0323 *D OAI22X1
*I *1119:A I *C 126 94.5 *L 0.0323 *D OAI22X1
*I *847:B I *C 140.4 91.5 *L 0.033 *D OAI22X1
*I *785:Y O *C 128.4 31.5 *L 0 *D INVX2

*CAP
1 *1169:A 0.00028335
2 *1119:A 0.00028335
3 *847:B 0.00028335
4 *785:Y 0.00019498
5 *251:4 0.00114926
6 *251:5 0.00114926
7 *251:6 0.00628192
8 *251:7 0.00629788
9 *251:8 0.00207235
10 *251:9 0.00207235
11 *251:10 0.00060973
12 *251:11 0.00044288
13 *251:12 0.00036499
14 *251:13 0.00080997

*RES
1 *251:5 *847:B 4
2 *251:5 *251:4 0.9
3 *251:8 *251:4 4
4 *251:9 *251:8 0.48
5 *251:12 *785:Y 0.225
6 *251:13 *251:9 4
7 *251:11 *251:12 4
8 *251:6 *1119:A 4
9 *251:6 *251:13 0.6
10 *251:11 *251:7 0.3
11 *251:7 *251:6 6
12 *251:10 *1169:A 4
13 *251:7 *251:10 0.48
*END

*D_NET *252 0.0309155

*CONN
*I *1222:C I *C 548.4 94.5 *L 0.0325 *D OAI22X1
*I *1017:B I *C 543.6 211.5 *L 0.033 *D OAI21X1
*I *912:A I *C 534 175.5 *L 0.0323 *D OAI21X1
*I *786:Y O *C 548.4 118.5 *L 0 *D INVX2

*CAP
1 *1222:C 0.00028335
2 *1017:B 0.00028335
3 *912:A 0.00028335
4 *786:Y 0.00028335
5 *252:4 0.00319583
6 *252:5 0.00399336
7 *252:6 0.00484645
8 *252:7 0.00728416
9 *252:8 0.00272106
10 *252:9 0.00159263
11 *252:10 0.00159263
12 *252:11 0.00108088
13 *252:12 0.0004675
14 *252:13 0.0004675
15 *252:14 0.00127003
16 *252:15 0.00127003

*RES
1 *252:12 *1017:B 4
2 *252:13 *252:12 0.3
3 *252:14 *252:13 4
4 *252:15 *252:14 0.32
5 *252:4 *252:15 4
6 *252:5 *912:A 4
7 *252:5 *252:4 3.3
8 *252:11 *252:5 0.9
9 *252:10 *252:11 4
10 *252:10 *252:9 0.48
11 *252:6 *252:9 4
12 *252:7 *786:Y 4
13 *252:7 *252:6 4.8
14 *252:8 *1222:C 4
15 *252:8 *252:7 2.4
*END

*D_NET *253 0.0233649

*CONN
*I *1222:B I *C 541.2 91.5 *L 0.033 *D OAI22X1
*I *915:B I *C 517.2 91.5 *L 0.0277 *D NOR2X1
*I *787:Y O *C 483.6 31.5 *L 0 *D INVX2

*CAP
1 *1222:B 0.00210785
2 *915:B 0.00227786
3 *787:Y 0.00163595
4 *253:3 0.00180596
5 *253:4 0.00043741
6 *253:5 0.00043741
7 *253:6 0.00189913
8 *253:7 0.00189913
9 *253:8 0.0054321
10 *253:9 0.0054321

*RES
1 *787:Y *253:3 1.68
2 *253:4 *253:3 4
3 *253:4 *253:5 0.3
4 *253:6 *253:5 4
5 *253:6 *253:7 0.56
6 *253:8 *253:7 4
7 *253:8 *253:9 5.7
8 *915:B *253:9 4
9 *915:B *1222:B 2.4
*END

*D_NET *254 0.0148835

*CONN
*I *1164:C I *C 202.8 154.5 *L 0.0325 *D OAI22X1
*I *1114:C I *C 202.8 115.5 *L 0.0325 *D OAI22X1
*I *849:B I *C 200.4 91.5 *L 0.033 *D OAI22X1
*I *788:Y O *C 205.2 151.5 *L 0 *D INVX2

*CAP
1 *1164:C 0.00028335
2 *1114:C 0.00028335
3 *849:B 0.00028335
4 *788:Y 0.00028335
5 *254:4 0.00044288
6 *254:5 0.00397491
7 *254:6 0.00593579
8 *254:7 0.00038987
9 *254:8 0.0026168
10 *254:9 0.00038987

*RES
1 *254:9 *788:Y 4
2 *254:4 *1164:C 4
3 *254:5 *254:9 0.24
4 *254:5 *254:4 0.3
5 *254:6 *1114:C 4
6 *254:6 *254:5 3.6
7 *254:8 *254:6 2.4
8 *254:7 *849:B 4
9 *254:7 *254:8 0.24
*END

*D_NET *255 0.0240194

*CONN
*I *1166:C I *C 301.2 154.5 *L 0.0325 *D OAI22X1
*I *1116:C I *C 310.8 115.5 *L 0.0325 *D OAI22X1
*I *850:B I *C 356.4 118.5 *L 0.033 *D OAI22X1
*I *789:Y O *C 332.4 118.5 *L 0 *D INVX2

*CAP
1 *1166:C 0.00028335
2 *1116:C 0.00028335
3 *850:B 0.00020796
4 *789:Y 0.00019498
5 *255:4 0.00385655
6 *255:5 0.00192133
7 *255:6 0.00321782
8 *255:7 0.00107173
9 *255:8 0.00139171
10 *255:9 0.00139171
11 *255:10 0.00242944
12 *255:11 0.00077987
13 *255:12 0.00077987
14 *255:13 0.00036499
15 *255:14 0.00037797
16 *255:15 0.00078839
17 *255:16 0.00078839
18 *255:17 0.00232797
19 *255:18 0.00078102
20 *255:19 0.00078102

*RES
1 *255:19 *1166:C 4
2 *255:14 *850:B 0.24
3 *255:18 *255:19 0.6
4 *255:13 *789:Y 0.225
5 *255:15 *255:14 4
6 *255:9 *255:18 4
7 *255:12 *255:13 4
8 *255:15 *255:16 0.6
9 *255:9 *255:8 0.32
10 *255:12 *255:11 0.6
11 *255:17 *255:16 4
12 *255:7 *1116:C 4
13 *255:10 *255:8 4
14 *255:4 *255:11 4
15 *255:4 *255:17 0.8
16 *255:7 *255:6 0.9
17 *255:6 *255:10 2.4
18 *255:5 *255:4 0.64
19 *255:5 *255:6 4
*END

*D_NET *256 0.0244901

*CONN
*I *1164:A I *C 193.2 154.5 *L 0.0323 *D OAI22X1
*I *1114:A I *C 193.2 115.5 *L 0.0323 *D OAI22X1
*I *851:B I *C 178.8 58.5 *L 0.033 *D OAI22X1
*I *790:Y O *C 181.2 91.5 *L 0 *D INVX2

*CAP
1 *1164:A 0.00022313
2 *1114:A 0.00022313
3 *851:B 0.00020796
4 *790:Y 0.00028335
5 *256:4 0.00413835
6 *256:5 0.00123179
7 *256:6 0.00262446
8 *256:7 0.001122
9 *256:8 0.00037797
10 *256:9 0.0035927
11 *256:10 0.00593381
12 *256:11 0.00039314
13 *256:12 0.00413835

*RES
1 *851:B *256:8 0.24
2 *256:9 *256:8 4
3 *256:9 *256:10 3.3
4 *256:10 *790:Y 4
5 *256:10 *256:6 2.4
6 *256:7 *256:6 4
7 *256:11 *1164:A 0.225
8 *256:7 *256:5 0.96
9 *256:5 *1114:A 0.225
10 *256:12 *256:11 4
11 *256:4 *256:5 4
12 *256:4 *256:12 3.9
*END

*D_NET *257 0.018594

*CONN
*I *1166:A I *C 291.6 154.5 *L 0.0323 *D OAI22X1
*I *1116:A I *C 301.2 115.5 *L 0.0323 *D OAI22X1
*I *852:B I *C 320.4 118.5 *L 0.033 *D OAI22X1
*I *791:Y O *C 298.8 118.5 *L 0 *D INVX2

*CAP
1 *1166:A 0.00028335
2 *1116:A 0.00023916
3 *852:B 0.00065394
4 *791:Y 0.00061092
5 *257:4 0.00047297
6 *257:5 0.00047297
7 *257:6 0.00040917
8 *257:7 0.00241144
9 *257:8 0.00082395
10 *257:9 0.00050503
11 *257:10 0.00050503
12 *257:11 0.00153416
13 *257:12 0.00127003
14 *257:13 0.00044091
15 *257:14 0.0036688
16 *257:15 0.00078093
17 *257:16 0.00351124

*RES
1 *257:15 *791:Y 0.705
2 *257:16 *1166:A 4
3 *257:8 *852:B 0.72
4 *257:14 *257:15 4
5 *257:14 *257:16 3.6
6 *257:9 *257:8 4
7 *257:13 *257:14 0.3
8 *257:10 *257:9 0.3
9 *257:12 *257:13 4
10 *257:11 *257:10 4
11 *1116:A *257:6 0.27
12 *257:12 *257:7 0.32
13 *257:7 *257:11 0.4
14 *257:5 *257:6 4
15 *257:4 *257:7 4
16 *257:4 *257:5 0.3
*END

*D_NET *258 0.00809352

*CONN
*I *1163:C I *C 135.6 175.5 *L 0.0325 *D OAI22X1
*I *1113:C I *C 135.6 154.5 *L 0.0325 *D OAI22X1
*I *853:B I *C 140.4 151.5 *L 0.033 *D OAI22X1
*I *792:Y O *C 138 178.5 *L 0 *D INVX2

*CAP
1 *1163:C 0.00028335
2 *1113:C 0.00028335
3 *853:B 0.00019498
4 *792:Y 0.00028335
5 *258:4 0.00036499
6 *258:5 0.00052904
7 *258:6 0.00244868
8 *258:7 0.00235936
9 *258:8 0.00038987
10 *258:9 0.0005032
11 *258:10 0.00045335

*RES
1 *258:4 *853:B 0.225
2 *258:10 *792:Y 4
3 *258:8 *258:4 4
4 *258:9 *258:10 0.3
5 *258:5 *258:8 0.24
6 *258:7 *1163:C 4
7 *258:7 *258:9 0.24
8 *258:5 *258:6 0.3
9 *258:6 *258:7 2.1
10 *1113:C *258:6 4
*END

*D_NET *259 0.00077988

*CONN
*I *854:B I *C 274.8 178.5 *L 0.033 *D OAI22X1
*I *793:Y O *C 270 178.5 *L 0 *D INVX2

*CAP
1 *854:B 0.00038994
2 *793:Y 0.00038994

*RES
1 *793:Y *854:B 0.45
*END

*D_NET *260 0.016749

*CONN
*I *1163:A I *C 126 175.5 *L 0.0323 *D OAI22X1
*I *1113:A I *C 126 154.5 *L 0.0323 *D OAI22X1
*I *855:B I *C 133.2 118.5 *L 0.033 *D OAI22X1
*I *794:Y O *C 128.4 118.5 *L 0 *D INVX2

*CAP
1 *1163:A 0.00028335
2 *1113:A 0.00028335
3 *855:B 0.00019498
4 *794:Y 0.00019498
5 *260:4 0.00064681
6 *260:5 0.00064681
7 *260:6 0.00050503
8 *260:7 0.00050503
9 *260:8 0.00036499
10 *260:9 0.00404499
11 *260:10 0.00050503
12 *260:11 0.00036499
13 *260:12 0.0058743
14 *260:13 0.00233434

*RES
1 *260:8 *855:B 0.225
2 *260:11 *794:Y 0.225
3 *260:13 *1163:A 4
4 *260:7 *260:8 4
5 *260:10 *260:11 4
6 *260:12 *1113:A 4
7 *260:12 *260:13 2.1
8 *260:7 *260:6 0.3
9 *260:10 *260:9 0.3
10 *260:9 *260:12 3.3
11 *260:4 *260:6 4
12 *260:5 *260:9 4
13 *260:5 *260:4 0.16
*END

*D_NET *261 0.0283656

*CONN
*I *1221:C I *C 548.4 55.5 *L 0.0325 *D OAI22X1
*I *1010:B I *C 548.4 151.5 *L 0.033 *D OAI21X1
*I *916:A I *C 534 115.5 *L 0.0323 *D OAI21X1
*I *795:Y O *C 553.2 118.5 *L 0 *D INVX2

*CAP
1 *1221:C 0.00028335
2 *1010:B 0.00018198
3 *916:A 0.00028335
4 *795:Y 0.00020796
5 *261:4 0.00343389
6 *261:5 0.00338718
7 *261:6 0.0010848
8 *261:7 0.0010848
9 *261:8 0.0019794
10 *261:9 0.0019794
11 *261:10 0.00167838
12 *261:11 0.00270832
13 *261:12 0.00451913
14 *261:13 0.00037797
15 *261:14 0.00035199
16 *261:15 0.00344248
17 *261:4 *33:5 0.00069061
18 *261:5 *33:4 0.00069061

*RES
1 *261:6 *916:A 4
2 *261:7 *261:6 0.9
3 *1010:B *261:14 0.21
4 *261:9 *261:7 4
5 *261:13 *795:Y 0.24
6 *261:15 *261:14 4
7 *261:9 *261:8 0.56
8 *261:12 *261:13 4
9 *261:12 *261:15 3.3
10 *261:11 *261:8 4
11 *261:11 *261:12 1.2
12 *261:10 *261:11 1.5
13 *261:4 *261:10 0.24
14 *261:5 *1221:C 4
15 *261:5 *261:4 3.6
*END

*D_NET *262 0.0050445

*CONN
*I *1221:B I *C 541.2 58.5 *L 0.033 *D OAI22X1
*I *919:B I *C 514.8 58.5 *L 0.0277 *D NOR2X1
*I *796:Y O *C 519.6 58.5 *L 0 *D INVX2

*CAP
1 *1221:B 0.00208004
2 *919:B 0.00044221
3 *796:Y 0.00252225

*RES
1 *796:Y *1221:B 2.16
2 *919:B *796:Y 0.48
*END

*D_NET *263 0.0239432

*CONN
*I *1158:C I *C 70.8 34.5 *L 0.0325 *D OAI22X1
*I *1108:C I *C 97.2 55.5 *L 0.0325 *D OAI22X1
*I *857:B I *C 44.4 58.5 *L 0.033 *D OAI22X1
*I *797:Y O *C 44.4 31.5 *L 0 *D INVX2

*CAP
1 *1158:C 0.00028335
2 *1108:C 0.00040294
3 *857:B 0.00028335
4 *797:Y 0.00028335
5 *263:4 0.00050503
6 *263:5 0.00050503
7 *263:6 0.00258824
8 *263:7 0.00258824
9 *263:8 0.00275954
10 *263:9 0.00057295
11 *263:10 0.00038987
12 *263:11 0.00261974
13 *263:12 0.00498653
14 *263:13 0.00264079
15 *263:14 0.00253427

*RES
1 *263:14 *857:B 4
2 *263:13 *797:Y 4
3 *263:13 *263:14 2.7
4 *263:13 *263:10 0.24
5 *263:4 *1158:C 4
6 *263:9 *1108:C 0.465
7 *263:11 *263:10 4
8 *263:5 *263:4 0.3
9 *263:6 *263:9 4
10 *263:11 *263:12 0.8
11 *263:12 *263:5 4
12 *263:7 *263:6 2.4
13 *263:12 *263:8 0.72
14 *263:8 *263:7 4
*END

*D_NET *264 0.0276902

*CONN
*I *1160:C I *C 351.6 34.5 *L 0.0325 *D OAI22X1
*I *1110:C I *C 344.4 94.5 *L 0.0325 *D OAI22X1
*I *858:B I *C 382.8 58.5 *L 0.033 *D OAI22X1
*I *798:Y O *C 378 31.5 *L 0 *D INVX2

*CAP
1 *1160:C 0.00028335
2 *1110:C 0.00068396
3 *858:B 0.00040294
4 *798:Y 0.00028335
5 *264:4 0.00279032
6 *264:5 0.00279032
7 *264:6 0.00595824
8 *264:7 0.00212055
9 *264:8 0.0018715
10 *264:9 0.0018715
11 *264:10 0.00047494
12 *264:11 0.00047494
13 *264:12 0.00412104
14 *264:13 0.00149945
15 *264:14 0.00120985
16 *264:15 0.00085397

*RES
1 *1110:C *264:15 0.72
2 *264:7 *1160:C 4
3 *264:12 *264:15 4
4 *264:7 *264:6 2.1
5 *264:6 *264:12 3.9
6 *264:9 *264:6 4
7 *264:9 *264:8 0.48
8 *264:11 *264:8 4
9 *264:11 *264:10 0.3
10 *264:14 *264:10 4
11 *264:14 *264:13 1.2
12 *264:13 *858:B 0.465
13 *264:4 *264:13 4
14 *264:5 *798:Y 4
15 *264:5 *264:4 2.7
*END

*D_NET *265 0.0204692

*CONN
*I *1158:A I *C 61.2 34.5 *L 0.0323 *D OAI22X1
*I *1108:A I *C 106.8 55.5 *L 0.0323 *D OAI22X1
*I *859:B I *C 111.6 31.5 *L 0.033 *D OAI22X1
*I *799:Y O *C 58.8 31.5 *L 0 *D INVX2

*CAP
1 *1158:A 0.00028335
2 *1108:A 0.00046112
3 *859:B 0.00028335
4 *799:Y 0.00020796
5 *265:4 0.00054818
6 *265:5 0.00044166
7 *265:6 0.00579389
8 *265:7 0.00579389
9 *265:8 0.00037797
10 *265:9 0.00038987
11 *265:10 0.002221
12 *265:11 0.00072686
13 *265:12 0.00043575
14 *265:13 0.00202516
15 *265:14 0.00047919

*RES
1 *1108:A *265:11 0.465
2 *265:12 *265:11 0.3
3 *265:14 *859:B 4
4 *265:13 *265:12 4
5 *265:14 *265:10 0.3
6 *265:10 *265:13 1.8
7 *265:6 *265:10 4
8 *265:7 *265:6 1.6
9 *265:9 *265:7 4
10 *265:4 *1158:A 4
11 *265:4 *265:9 0.24
12 *265:5 *265:4 0.3
13 *799:Y *265:8 0.24
14 *265:8 *265:5 4
*END

*D_NET *266 0.0273351

*CONN
*I *1160:A I *C 342 34.5 *L 0.0323 *D OAI22X1
*I *1110:A I *C 334.8 94.5 *L 0.0323 *D OAI22X1
*I *860:B I *C 356.4 91.5 *L 0.033 *D OAI22X1
*I *800:Y O *C 363.6 31.5 *L 0 *D INVX2

*CAP
1 *1160:A 0.00028335
2 *1110:A 0.00028335
3 *860:B 0.00089194
4 *800:Y 0.00020796
5 *266:4 0.0019272
6 *266:5 0.0019272
7 *266:6 0.0058399
8 *266:7 0.00594328
9 *266:8 0.00045335
10 *266:9 0.00045335
11 *266:10 0.00106195
12 *266:11 0.00075403
13 *266:12 0.00075403
14 *266:13 0.0013808
15 *266:14 0.00037797
16 *266:15 0.00042997
17 *266:16 0.00042997
18 *266:17 0.00038673
19 *266:18 0.00226841
20 *266:19 0.00128036

*RES
1 *266:16 *1160:A 4
2 *266:15 *266:16 0.3
3 *266:14 *800:Y 0.24
4 *266:5 *266:15 4
5 *266:17 *266:14 4
6 *266:5 *266:4 0.56
7 *266:10 *860:B 0.96
8 *266:7 *266:17 0.24
9 *266:7 *266:4 4
10 *266:8 *266:10 4
11 *266:7 *266:6 5.7
12 *266:9 *266:8 0.3
13 *266:19 *266:6 4
14 *266:18 *266:9 4
15 *266:18 *266:19 0.4
16 *266:13 *266:18 0.4
17 *266:12 *266:13 4
18 *266:11 *1110:A 4
19 *266:12 *266:11 0.6
*END

*D_NET *267 0.0243767

*CONN
*I *1157:C I *C 61.2 55.5 *L 0.0325 *D OAI22X1
*I *1107:C I *C 80.4 94.5 *L 0.0325 *D OAI22X1
*I *861:B I *C 61.2 91.5 *L 0.033 *D OAI22X1
*I *801:Y O *C 30 91.5 *L 0 *D INVX2

*CAP
1 *1157:C 0.00028335
2 *1107:C 0.00028335
3 *861:B 0.00131021
4 *801:Y 0.00028335
5 *267:4 0.00114926
6 *267:5 0.00461727
7 *267:6 0.00375136
8 *267:7 0.00206432
9 *267:8 0.00206432
10 *267:9 0.00192561
11 *267:10 0.00192561
12 *267:11 0.00084007
13 *267:12 0.00084007
14 *267:13 0.00045335
15 *267:14 0.00045335
16 *267:15 0.0004675
17 *267:16 0.0004675
18 *267:17 0.00119687

*RES
1 *267:13 *801:Y 4
2 *267:13 *267:14 0.3
3 *267:10 *267:14 4
4 *267:10 *267:9 0.64
5 *267:15 *267:9 4
6 *267:16 *267:15 0.3
7 *267:17 *267:16 4
8 *267:12 *1107:C 4
9 *267:17 *861:B 1.185
10 *267:12 *267:11 0.6
11 *267:6 *1157:C 4
12 *267:7 *267:11 4
13 *267:6 *267:5 3.6
14 *267:5 *861:B 4
15 *267:8 *267:7 0.64
16 *267:5 *267:4 0.9
17 *267:4 *267:8 4
*END

*D_NET *268 0.00726158

*CONN
*I *862:B I *C 270 58.5 *L 0.033 *D OAI22X1
*I *802:Y O *C 260.4 58.5 *L 0 *D INVX2

*CAP
1 *862:B 0.00019498
2 *802:Y 0.00028335
3 *268:2 0.00078839
4 *268:3 0.00078839
5 *268:4 0.00080997
6 *268:5 0.00080997
7 *268:6 0.00036499
8 *268:7 0.00161077
9 *268:8 0.00161077

*RES
1 *862:B *268:6 0.225
2 *268:5 *268:6 4
3 *268:5 *268:4 0.6
4 *268:8 *268:4 4
5 *268:7 *268:8 0.4
6 *268:2 *268:7 4
7 *268:3 *268:2 0.6
8 *802:Y *268:3 4
*END

*D_NET *269 0.0262204

*CONN
*I *1157:A I *C 70.8 55.5 *L 0.0323 *D OAI22X1
*I *1107:A I *C 70.8 94.5 *L 0.0323 *D OAI22X1
*I *863:B I *C 37.2 91.5 *L 0.033 *D OAI22X1
*I *803:Y O *C 58.8 58.5 *L 0 *D INVX2

*CAP
1 *1157:A 0.00019498
2 *1107:A 0.00028335
3 *863:B 0.00028335
4 *803:Y 0.0010569
5 *269:4 0.00166537
6 *269:5 0.00161552
7 *269:6 0.0023367
8 *269:7 0.00164299
9 *269:8 0.00102691
10 *269:9 0.00036499
11 *269:10 0.00284737
12 *269:11 0.0007367
13 *269:12 0.0007367
14 *269:13 0.00116616
15 *269:14 0.00362078
16 *269:15 0.00270737
17 *269:16 0.00270737
18 *269:17 0.00122691

*RES
1 *269:11 *863:B 4
2 *269:17 *803:Y 1.185
3 *269:12 *269:11 0.6
4 *269:16 *269:17 4
5 *269:13 *269:12 4
6 *269:16 *269:15 2.7
7 *269:13 *269:14 0.32
8 *269:14 *269:15 4
9 *269:14 *269:10 0.8
10 *269:8 *1107:A 4
11 *269:6 *269:10 4
12 *269:6 *269:8 0.9
13 *269:7 *269:6 1.5
14 *269:7 *269:4 0.24
15 *269:5 *269:4 1.5
16 *1157:A *269:9 0.225
17 *269:9 *269:5 4
*END

*D_NET *270 0.0322323

*CONN
*I *1220:C I *C 546 115.5 *L 0.0325 *D OAI22X1
*I *1003:B I *C 512.4 211.5 *L 0.033 *D OAI21X1
*I *920:A I *C 512.4 175.5 *L 0.0323 *D OAI21X1
*I *804:Y O *C 524.4 118.5 *L 0 *D INVX2

*CAP
1 *1220:C 0.00028335
2 *1003:B 0.00028335
3 *920:A 0.00028335
4 *804:Y 0.00122235
5 *270:4 0.00796961
6 *270:5 0.00481298
7 *270:6 0.00106655
8 *270:7 0.00106655
9 *270:8 0.00110901
10 *270:9 0.00196693
11 *270:10 0.00196693
12 *270:11 0.00038673
13 *270:12 0.00084007
14 *270:13 0.00084007
15 *270:14 0.00348669
16 *270:9 *28:4 0.00089684
17 *270:10 *28:5 0.00089684
18 *270:6 *326:2 2.251e-05
19 *270:7 *326:3 2.251e-05
20 *270:4 *326:2 2.331e-05
21 *270:5 *326:3 2.331e-05
22 *270:4 *326:6 0.00138122
23 *270:5 *326:5 0.00138122

*RES
1 *270:13 *1220:C 4
2 *270:12 *270:13 0.6
3 *270:9 *270:12 4
4 *270:10 *270:9 0.72
5 *270:14 *1003:B 4
6 *270:7 *270:10 4
7 *270:4 *920:A 4
8 *270:4 *270:14 3.6
9 *270:7 *270:6 0.9
10 *270:5 *270:4 5.7
11 *804:Y *270:6 4
12 *270:5 *270:11 0.24
13 *270:8 *270:11 4
14 *270:8 *804:Y 0.945
*END

*D_NET *271 0.0359222

*CONN
*I *1220:B I *C 538.8 118.5 *L 0.033 *D OAI22X1
*I *923:B I *C 505.2 91.5 *L 0.0277 *D NOR2X1
*I *805:Y O *C 418.8 91.5 *L 0 *D INVX2

*CAP
1 *1220:B 0.00028335
2 *923:B 0.00019498
3 *805:Y 0.00020796
4 *271:3 0.00078839
5 *271:4 0.00129343
6 *271:5 0.00078839
7 *271:6 0.00199579
8 *271:7 0.00199579
9 *271:8 0.00758068
10 *271:9 0.00758068
11 *271:10 0.0006954
12 *271:11 0.0006954
13 *271:12 0.0024777
14 *271:13 0.0024777
15 *271:14 0.00037797
16 *271:15 0.00036499
17 *271:12 *29:2 0.00129543
18 *271:13 *29:3 0.00129543
19 *271:8 *29:2 0.00020983
20 *271:9 *29:3 0.00020983
21 *271:8 *34:4 0.00109614
22 *271:9 *34:5 0.00109614
23 *271:6 *30:2 0.00046041
24 *271:7 *30:3 0.00046041

*RES
1 *271:6 *1220:B 4
2 *271:7 *271:6 2.1
3 *271:12 *271:7 4
4 *271:13 *271:12 1.04
5 *923:B *271:15 0.225
6 *271:3 *271:13 4
7 *271:4 *271:15 4
8 *271:4 *271:3 0.6
9 *271:5 *271:4 0.6
10 *271:8 *271:5 4
11 *271:9 *271:8 2.88
12 *271:11 *271:9 4
13 *271:11 *271:10 0.6
14 *271:14 *271:10 4
15 *805:Y *271:14 0.24
*END

*D_NET *272 0.011785

*CONN
*I *1152:C I *C 210 214.5 *L 0.0325 *D OAI22X1
*I *1102:C I *C 202.8 235.5 *L 0.0325 *D OAI22X1
*I *865:B I *C 188.4 211.5 *L 0.033 *D OAI22X1
*I *806:Y O *C 212.4 211.5 *L 0 *D INVX2

*CAP
1 *1152:C 0.00028335
2 *1102:C 0.00028335
3 *865:B 0.00089194
4 *806:Y 0.00028335
5 *272:4 0.00106195
6 *272:5 0.00074465
7 *272:6 0.00047494
8 *272:7 0.00052479
9 *272:8 0.00038987
10 *272:9 0.00096452
11 *272:10 0.00066653
12 *272:11 0.00263282
13 *272:12 0.00071456
14 *272:13 0.0018684

*RES
1 *865:B *272:4 0.96
2 *272:6 *272:4 4
3 *272:6 *272:5 0.3
4 *272:5 *272:12 0.48
5 *272:13 *1102:C 4
6 *272:12 *272:11 0.3
7 *272:11 *272:13 1.8
8 *272:11 *272:9 0.72
9 *272:8 *806:Y 4
10 *272:10 *1152:C 4
11 *272:10 *272:9 0.3
12 *272:7 *272:8 0.24
13 *272:7 *272:10 0.3
*END

*D_NET *273 0.0208163

*CONN
*I *1154:C I *C 344.4 154.5 *L 0.0325 *D OAI22X1
*I *1104:C I *C 339.6 175.5 *L 0.0325 *D OAI22X1
*I *866:B I *C 380.4 178.5 *L 0.033 *D OAI22X1
*I *807:Y O *C 382.8 151.5 *L 0 *D INVX2

*CAP
1 *1154:C 0.00028335
2 *1104:C 0.00028335
3 *866:B 0.00028335
4 *807:Y 0.00028335
5 *273:4 0.00166297
6 *273:5 0.00166297
7 *273:6 0.00084007
8 *273:7 0.00084007
9 *273:8 0.00130333
10 *273:9 0.00200011
11 *273:10 0.00102684
12 *273:11 0.00073293
13 *273:12 0.00077964
14 *273:13 0.00075271
15 *273:14 0.0042206
16 *273:15 0.00386064

*RES
1 *273:11 *807:Y 4
2 *273:11 *273:12 0.6
3 *273:8 *273:12 0.24
4 *273:10 *866:B 4
5 *273:5 *1154:C 4
6 *273:8 *273:9 1.2
7 *273:9 *273:10 0.9
8 *273:5 *273:4 1.5
9 *273:15 *273:9 4
10 *273:14 *273:4 4
11 *273:14 *273:15 1.2
12 *273:13 *273:14 0.16
13 *273:7 *273:13 4
14 *273:7 *273:6 0.6
15 *1104:C *273:6 4
*END

*D_NET *274 0.0304207

*CONN
*I *1152:A I *C 200.4 214.5 *L 0.0323 *D OAI22X1
*I *1102:A I *C 193.2 235.5 *L 0.0323 *D OAI22X1
*I *867:B I *C 171.6 118.5 *L 0.033 *D OAI22X1
*I *808:Y O *C 178.8 118.5 *L 0 *D INVX2

*CAP
1 *1152:A 0.00067098
2 *1102:A 0.00028335
3 *867:B 0.00059792
4 *808:Y 0.001994
5 *274:4 0.012092
6 *274:5 0.0100666
7 *274:6 0.00156609
8 *274:7 0.00230878
9 *274:8 0.00084099

*RES
1 *274:7 *1102:A 4
2 *274:8 *1152:A 0.705
3 *867:B *808:Y 0.69
4 *274:4 *274:7 2.1
5 *274:4 *274:8 4
6 *274:5 *274:4 9.6
7 *808:Y *274:6 1.44
8 *274:6 *274:5 4
*END

*D_NET *275 0.0141124

*CONN
*I *1154:A I *C 334.8 154.5 *L 0.0323 *D OAI22X1
*I *1104:A I *C 330 175.5 *L 0.0323 *D OAI22X1
*I *868:B I *C 356.4 151.5 *L 0.033 *D OAI22X1
*I *809:Y O *C 351.6 151.5 *L 0 *D INVX2

*CAP
1 *1154:A 0.00044624
2 *1104:A 0.00028335
3 *868:B 0.00041594
4 *809:Y 0.00083188
5 *275:4 0.00071198
6 *275:5 0.00043575
7 *275:6 0.00050503
8 *275:7 0.00240188
9 *275:8 0.0021802
10 *275:9 0.00218413
11 *275:10 0.00058595
12 *275:11 0.00047297
13 *275:12 0.00047297
14 *275:13 0.00218413

*RES
1 *809:Y *868:B 0.48
2 *275:10 *809:Y 0.48
3 *275:11 *275:10 4
4 *275:11 *275:12 0.3
5 *275:13 *275:12 4
6 *275:9 *275:13 0.56
7 *275:4 *1154:A 0.45
8 *275:6 *275:9 4
9 *275:4 *275:5 0.3
10 *275:6 *275:7 0.3
11 *275:7 *275:5 4
12 *275:7 *275:8 1.8
13 *1104:A *275:8 4
*END

*D_NET *276 0.0217626

*CONN
*I *1151:C I *C 162 175.5 *L 0.0325 *D OAI22X1
*I *1101:C I *C 164.4 214.5 *L 0.0325 *D OAI22X1
*I *869:B I *C 162 151.5 *L 0.033 *D OAI22X1
*I *810:Y O *C 162 118.5 *L 0 *D INVX2

*CAP
1 *1151:C 0.00028335
2 *1101:C 0.00028335
3 *869:B 0.00028335
4 *810:Y 0.00028335
5 *276:4 0.00374348
6 *276:5 0.00590818
7 *276:6 0.00255457
8 *276:7 0.00423639
9 *276:8 0.00418654

*RES
1 *276:8 *1101:C 4
2 *276:7 *276:8 3.9
3 *276:6 *1151:C 4
4 *276:6 *276:7 0.24
5 *276:5 *869:B 4
6 *276:5 *276:6 2.4
7 *276:4 *276:5 3.3
8 *810:Y *276:4 4
*END

*D_NET *277 0.00357612

*CONN
*I *870:B I *C 274.8 211.5 *L 0.033 *D OAI22X1
*I *811:Y O *C 265.2 211.5 *L 0 *D INVX2

*CAP
1 *870:B 0.00019498
2 *811:Y 0.00019498
3 *277:2 0.00036499
4 *277:3 0.00036499
5 *277:4 0.0007489
6 *277:5 0.00047919
7 *277:6 0.0007489
8 *277:7 0.00047919

*RES
1 *277:3 *870:B 0.225
2 *277:7 *277:3 4
3 *277:6 *277:7 0.3
4 *277:4 *277:6 0.48
5 *277:4 *277:5 0.3
6 *277:2 *277:5 4
7 *811:Y *277:2 0.225
*END

*D_NET *278 0.0221061

*CONN
*I *1151:A I *C 152.4 175.5 *L 0.0323 *D OAI22X1
*I *1101:A I *C 154.8 214.5 *L 0.0323 *D OAI22X1
*I *871:B I *C 138 211.5 *L 0.033 *D OAI22X1
*I *812:Y O *C 150 178.5 *L 0 *D INVX2

*CAP
1 *1151:A 0.00028335
2 *1101:A 0.00028335
3 *871:B 0.00028335
4 *812:Y 0.00081888
5 *278:4 0.00285513
6 *278:5 0.00269135
7 *278:6 0.00083398
8 *278:7 0.00078413
9 *278:8 0.00114926
10 *278:9 0.00289107
11 *278:10 0.00207501
12 *278:11 0.0010848
13 *278:12 0.00113465
14 *278:13 0.00049698
15 *278:14 0.00172595
16 *278:15 0.00172595
17 *278:16 0.00098889

*RES
1 *278:16 *812:Y 0.945
2 *278:11 *1101:A 4
3 *278:7 *278:16 4
4 *278:12 *278:11 0.9
5 *278:7 *278:6 0.6
6 *278:5 *1151:A 4
7 *278:13 *278:12 0.24
8 *278:10 *278:6 0.24
9 *278:8 *871:B 4
10 *278:5 *278:4 2.7
11 *278:4 *278:13 0.3
12 *278:10 *278:9 1.8
13 *278:9 *278:8 0.9
14 *278:14 *278:4 4
15 *278:15 *278:9 4
16 *278:15 *278:14 0.48
*END

*D_NET *279 0.0217013

*CONN
*I *1219:C I *C 457.2 94.5 *L 0.0325 *D OAI22X1
*I *1057:B I *C 430.8 151.5 *L 0.033 *D OAI21X1
*I *924:A I *C 433.2 115.5 *L 0.0323 *D OAI21X1
*I *813:Y O *C 438 91.5 *L 0 *D INVX2

*CAP
1 *1219:C 0.00100395
2 *1057:B 0.00020796
3 *924:A 0.00028335
4 *813:Y 0.00040294
5 *279:4 0.00172304
6 *279:5 0.00043978
7 *279:6 0.00047297
8 *279:7 0.00047297
9 *279:8 0.00449381
10 *279:9 0.00321055
11 *279:10 0.00130655
12 *279:11 0.00130655
13 *279:12 0.00066868
14 *279:13 0.00043575
15 *279:14 0.00117396
16 *279:15 0.00037797
17 *279:10 *324:40 0.00049824
18 *279:11 *324:41 0.00049824
19 *279:9 *324:43 0.00092081
20 *279:8 *324:44 0.00092081
21 *279:8 *324:43 0.00038367
22 *279:4 *324:44 0.00038367
23 *1219:C *324:45 5.755e-05
24 *279:14 *927:A 5.755e-05

*RES
1 *279:14 *1219:C 1.2
2 *279:7 *279:14 4
3 *279:12 *813:Y 0.465
4 *279:7 *279:6 0.3
5 *279:12 *279:13 0.3
6 *279:10 *279:6 4
7 *279:5 *279:13 4
8 *279:11 *279:10 0.4
9 *1057:B *279:15 0.24
10 *279:5 *279:4 0.3
11 *279:4 *279:11 4
12 *279:9 *279:15 4
13 *279:4 *279:8 1.8
14 *279:8 *279:9 3.6
15 *924:A *279:8 4
*END

*D_NET *280 0.0186035

*CONN
*I *1219:B I *C 464.4 91.5 *L 0.033 *D OAI22X1
*I *927:B I *C 440.4 91.5 *L 0.0277 *D NOR2X1
*I *814:Y O *C 418.8 58.5 *L 0 *D INVX2

*CAP
1 *1219:B 0.00028335
2 *927:B 0.00028335
3 *814:Y 0.00103984
4 *280:3 0.00043741
5 *280:4 0.00043741
6 *280:5 0.00129126
7 *280:6 0.00129126
8 *280:7 0.00268712
9 *280:8 0.0025405
10 *280:9 0.00044166
11 *280:10 0.00044166
12 *280:11 0.00120985
13 *280:12 0.00042997
14 *280:13 0.00289444
15 *280:14 0.00289444

*RES
1 *280:3 *1219:B 4
2 *280:4 *280:3 0.3
3 *280:14 *280:4 4
4 *280:12 *927:B 4
5 *280:13 *280:14 0.8
6 *280:7 *280:12 0.3
7 *280:7 *280:13 4
8 *280:8 *280:7 2.7
9 *280:5 *280:8 4
10 *280:6 *280:5 0.32
11 *280:9 *280:6 4
12 *280:10 *280:9 0.3
13 *814:Y *280:11 1.2
14 *280:11 *280:10 4
*END

*D_NET *281 0.0277758

*CONN
*I *1146:C I *C 92.4 154.5 *L 0.0325 *D OAI22X1
*I *1096:C I *C 97.2 175.5 *L 0.0325 *D OAI22X1
*I *873:B I *C 39.6 178.5 *L 0.033 *D OAI22X1
*I *815:Y O *C 32.4 151.5 *L 0 *D INVX2

*CAP
1 *1146:C 0.00145578
2 *1096:C 0.00165076
3 *873:B 0.00044409
4 *815:Y 0.00020796
5 *281:4 0.00233435
6 *281:5 0.00283939
7 *281:6 0.00078839
8 *281:7 0.00421263
9 *281:8 0.00421263
10 *281:9 0.0006141
11 *281:10 0.00037797
12 *281:11 0.00162579
13 *281:12 0.00182077
14 *281:13 0.00047494
15 *281:14 0.00223408
16 *281:15 0.00209234
17 *281:16 0.00038987

*RES
1 *281:12 *1096:C 1.905
2 *281:11 *1146:C 1.68
3 *281:16 *281:12 4
4 *281:13 *281:11 4
5 *281:15 *281:16 0.24
6 *281:13 *281:14 0.3
7 *281:14 *281:15 1.8
8 *281:9 *873:B 0.48
9 *281:7 *281:14 4
10 *281:4 *281:9 4
11 *281:8 *281:7 1.36
12 *281:5 *281:4 2.1
13 *281:5 *281:8 4
14 *281:6 *281:5 0.6
15 *281:10 *281:6 4
16 *815:Y *281:10 0.24
*END

*D_NET *282 0.0196771

*CONN
*I *1148:C I *C 306 175.5 *L 0.0325 *D OAI22X1
*I *1098:C I *C 318 175.5 *L 0.0325 *D OAI22X1
*I *874:B I *C 363.6 178.5 *L 0.033 *D OAI22X1
*I *816:Y O *C 327.6 178.5 *L 0 *D INVX2

*CAP
1 *1148:C 0.00028335
2 *1098:C 0.00058595
3 *874:B 0.00020796
4 *816:Y 0.00020796
5 *282:4 0.00050503
6 *282:5 0.00050503
7 *282:6 0.00077594
8 *282:7 0.00077594
9 *282:8 0.00160733
10 *282:9 0.00160733
11 *282:10 0.00084006
12 *282:11 0.00084006
13 *282:12 0.00395959
14 *282:13 0.00395959
15 *282:14 0.00068168
16 *282:15 0.0004737
17 *282:16 0.00047259
18 *282:17 0.00037797
19 *282:18 0.00050503
20 *282:19 0.00050503

*RES
1 *282:17 *874:B 0.24
2 *282:18 *282:17 4
3 *282:18 *282:19 0.3
4 *282:12 *282:19 4
5 *282:13 *282:12 1.2
6 *282:4 *282:13 4
7 *282:5 *282:4 0.3
8 *282:16 *816:Y 0.24
9 *282:16 *282:5 4
10 *282:15 *282:16 0.24
11 *282:14 *282:15 0.3
12 *1098:C *282:14 0.48
13 *282:6 *1098:C 4
14 *282:7 *282:6 0.6
15 *282:8 *282:7 4
16 *282:9 *282:8 0.4
17 *282:11 *282:9 4
18 *282:11 *282:10 0.6
19 *1148:C *282:10 4
*END

*D_NET *283 0.0134405

*CONN
*I *1146:A I *C 102 154.5 *L 0.0323 *D OAI22X1
*I *1096:A I *C 106.8 175.5 *L 0.0323 *D OAI22X1
*I *875:B I *C 111.6 151.5 *L 0.033 *D OAI22X1
*I *817:Y O *C 106.8 151.5 *L 0 *D INVX2

*CAP
1 *1146:A 0.00028335
2 *1096:A 0.00028335
3 *875:B 0.00028335
4 *817:Y 0.00028335
5 *283:4 0.00078839
6 *283:5 0.00078839
7 *283:6 0.0011751
8 *283:7 0.0011751
9 *283:8 0.00184517
10 *283:9 0.00273692
11 *283:10 0.0011751
12 *283:11 0.00075393
13 *283:12 0.00111511
14 *283:13 0.00075393

*RES
1 *283:7 *875:B 4
2 *283:10 *817:Y 4
3 *283:8 *1096:A 4
4 *283:7 *283:6 0.9
5 *283:10 *283:9 0.9
6 *283:9 *283:8 1.5
7 *283:11 *283:6 4
8 *283:12 *283:9 4
9 *283:12 *283:11 0.16
10 *283:13 *283:12 0.16
11 *283:4 *283:13 4
12 *283:5 *283:4 0.6
13 *1146:A *283:5 4
*END

*D_NET *284 0.0106184

*CONN
*I *1148:A I *C 296.4 175.5 *L 0.0323 *D OAI22X1
*I *1098:A I *C 308.4 175.5 *L 0.0323 *D OAI22X1
*I *876:B I *C 310.8 151.5 *L 0.033 *D OAI22X1
*I *818:Y O *C 306 151.5 *L 0 *D INVX2

*CAP
1 *1148:A 0.00028335
2 *1098:A 0.00028335
3 *876:B 0.00040294
4 *818:Y 0.00057295
5 *284:4 0.00077065
6 *284:5 0.00072394
7 *284:6 0.00178241
8 *284:7 0.0016395
9 *284:8 0.00136822
10 *284:9 0.00136822
11 *284:10 0.00047494
12 *284:11 0.00047494
13 *284:12 0.00047297

*RES
1 *818:Y *876:B 0.465
2 *284:5 *818:Y 4
3 *284:5 *284:4 0.6
4 *284:4 *284:7 0.24
5 *284:12 *1098:A 4
6 *284:7 *284:6 1.5
7 *284:6 *284:12 0.3
8 *284:8 *284:6 4
9 *284:9 *284:8 0.4
10 *284:10 *284:9 4
11 *284:10 *284:11 0.3
12 *1148:A *284:11 4
*END

*D_NET *285 0.0221337

*CONN
*I *1145:C I *C 68.4 214.5 *L 0.0325 *D OAI22X1
*I *1095:C I *C 80.4 214.5 *L 0.0325 *D OAI22X1
*I *877:B I *C 63.6 178.5 *L 0.033 *D OAI22X1
*I *819:Y O *C 58.8 178.5 *L 0 *D INVX2

*CAP
1 *1145:C 0.00028335
2 *1095:C 0.00028335
3 *877:B 0.00028335
4 *819:Y 0.00028335
5 *285:4 0.00075271
6 *285:5 0.00111267
7 *285:6 0.00075271
8 *285:7 0.00170093
9 *285:8 0.00170093
10 *285:9 0.00081422
11 *285:10 0.00302026
12 *285:11 0.00169467
13 *285:12 0.00169467
14 *285:13 0.00248939
15 *285:14 0.00184518
16 *285:15 0.00184518
17 *285:16 0.00078839
18 *285:17 0.00078839

*RES
1 *285:17 *1095:C 4
2 *285:17 *285:16 0.6
3 *285:7 *285:16 4
4 *285:8 *285:7 0.4
5 *285:9 *285:8 4
6 *285:10 *1145:C 4
7 *285:10 *285:9 0.6
8 *285:15 *877:B 4
9 *285:13 *285:10 2.1
10 *285:15 *285:14 1.5
11 *285:4 *285:13 4
12 *285:5 *285:14 4
13 *285:5 *285:4 0.16
14 *285:6 *285:5 0.16
15 *285:12 *285:6 4
16 *285:11 *819:Y 4
17 *285:11 *285:12 1.5
*END

*D_NET *286 0.00077988

*CONN
*I *878:B I *C 274.8 271.5 *L 0.033 *D OAI22X1
*I *820:Y O *C 270 271.5 *L 0 *D INVX2

*CAP
1 *878:B 0.00038994
2 *820:Y 0.00038994

*RES
1 *820:Y *878:B 0.45
*END

*D_NET *287 0.0181928

*CONN
*I *1145:A I *C 58.8 214.5 *L 0.0323 *D OAI22X1
*I *1095:A I *C 70.8 214.5 *L 0.0323 *D OAI22X1
*I *879:B I *C 39.6 211.5 *L 0.033 *D OAI22X1
*I *821:Y O *C 32.4 238.5 *L 0 *D INVX2

*CAP
1 *1145:A 0.000476
2 *1095:A 0.00028335
3 *879:B 0.00028335
4 *821:Y 0.00028335
5 *287:4 0.00084005
6 *287:5 0.00084005
7 *287:6 0.00230849
8 *287:7 0.00230849
9 *287:8 0.00178411
10 *287:9 0.00295987
11 *287:10 0.00050503
12 *287:11 0.00050503
13 *287:12 0.00047494
14 *287:13 0.00047494
15 *287:14 0.00064601
16 *287:15 0.00102201
17 *287:16 0.00219777

*RES
1 *287:6 *821:Y 4
2 *287:7 *287:6 2.1
3 *287:5 *879:B 4
4 *287:14 *1145:A 0.48
5 *287:15 *287:7 4
6 *287:5 *287:4 0.6
7 *287:13 *287:14 4
8 *287:11 *1095:A 4
9 *287:15 *287:16 0.24
10 *287:16 *287:4 4
11 *287:13 *287:12 0.3
12 *287:11 *287:10 0.3
13 *287:16 *287:9 0.48
14 *287:9 *287:12 4
15 *287:8 *287:10 4
16 *287:9 *287:8 0.56
*END

*D_NET *288 0.0261461

*CONN
*I *1218:C I *C 452.4 115.5 *L 0.0325 *D OAI22X1
*I *996:B I *C 411.6 151.5 *L 0.033 *D OAI21X1
*I *928:A I *C 433.2 175.5 *L 0.0323 *D OAI21X1
*I *822:Y O *C 430.8 118.5 *L 0 *D INVX2

*CAP
1 *1218:C 0.00028335
2 *996:B 0.00038994
3 *928:A 0.00117512
4 *822:Y 0.00020796
5 *288:4 0.00258097
6 *288:5 0.00284441
7 *288:6 0.00047297
8 *288:7 0.00047297
9 *288:8 0.00080253
10 *288:9 0.00080253
11 *288:10 0.00238346
12 *288:11 0.00142458
13 *288:12 0.00318333
14 *288:13 0.00132996
15 *288:14 0.00238346
16 *288:15 0.00055995
17 *288:16 0.00134513
18 *288:17 0.00350344

*RES
1 *288:16 *928:A 1.185
2 *288:4 *288:16 4
3 *288:6 *1218:C 4
4 *996:B *288:15 0.45
5 *288:5 *288:4 2.4
6 *288:7 *288:6 0.3
7 *288:17 *288:15 4
8 *288:17 *288:5 0.48
9 *288:14 *288:7 4
10 *288:12 *288:17 3.3
11 *288:10 *288:14 0.8
12 *288:13 *288:12 4
13 *288:9 *288:10 4
14 *288:13 *288:11 1.2
15 *288:11 *822:Y 0.24
16 *288:9 *288:8 0.6
17 *288:8 *288:11 4
*END

*D_NET *289 0.0093185

*CONN
*I *1201:B I *C 270 421.5 *L 0.0216 *D NAND2X1
*I *1086:A I *C 267.6 394.5 *L 0.0214 *D NAND2X1
*I *936:B I *C 274.8 391.5 *L 0.0277 *D NOR2X1
*I *823:Y O *C 265.2 391.5 *L 0 *D INVX2

*CAP
1 *1201:B 0.00028335
2 *1086:A 0.00028335
3 *936:B 0.00020796
4 *823:Y 0.00020796
5 *289:4 0.00037797
6 *289:5 0.00037797
7 *289:6 0.0004491
8 *289:7 0.00054958
9 *289:8 0.00291835
10 *289:9 0.00266072
11 *289:10 0.00047919
12 *289:11 0.000523

*RES
1 *289:5 *936:B 0.24
2 *289:10 *289:5 4
3 *289:9 *1201:B 4
4 *289:10 *289:11 0.3
5 *289:8 *289:9 2.7
6 *289:8 *289:11 0.24
7 *289:7 *1086:A 4
8 *289:7 *289:8 0.24
9 *289:6 *289:7 0.3
10 *289:4 *289:6 4
11 *823:Y *289:4 0.24
*END

*D_NET *290 0.0512289

*CONN
*I *1065:Y O *C 178.8 418.5 *L 0 *D NAND2X1
*I *1064:A I *C 73.2 454.5 *L 0.0323 *D OAI22X1
*I *1063:A I *C 92.4 415.5 *L 0.0323 *D OAI22X1
*I *1062:A I *C 66 454.5 *L 0.0323 *D OAI22X1
*I *1061:A I *C 85.2 454.5 *L 0.0323 *D OAI22X1
*I *1060:A I *C 97.2 454.5 *L 0.0323 *D OAI22X1
*I *824:A I *C 68.4 415.5 *L 0.0323 *D OAI22X1
*I *744:A I *C 104.4 415.5 *L 0.0333 *D INVX2

*CAP
1 *1065:Y 0.00028335
2 *1064:A 0.00046112
3 *1063:A 0.00065394
4 *1062:A 0.00022313
5 *1061:A 0.00028335
6 *1060:A 0.00028335
7 *824:A 0.00028335
8 *744:A 0.00028335
9 *290:8 0.00345579
10 *290:9 0.00423216
11 *290:10 0.00108904
12 *290:11 0.00108904
13 *290:12 0.00636179
14 *290:13 0.00221942
15 *290:14 0.00458161
16 *290:15 0.00047494
17 *290:16 0.00043741
18 *290:17 0.00043741
19 *290:18 0.00047919
20 *290:19 0.00047919
21 *290:20 0.0032412
22 *290:21 0.00328769
23 *290:22 0.00107418
24 *290:23 0.00388959
25 *290:24 0.00325707
26 *290:25 0.0016626
27 *290:26 0.001122
28 *290:27 0.00074092
29 *290:28 0.00044288
30 *290:29 0.00091432
31 *290:30 0.00044166
32 *290:31 0.00153143
33 *290:32 0.00153143

*RES
1 *290:18 *1065:Y 4
2 *290:19 *290:18 0.3
3 *290:20 *290:19 4
4 *290:16 *744:A 4
5 *290:21 *290:20 1.12
6 *290:10 *1060:A 4
7 *290:17 *290:16 0.3
8 *290:14 *290:21 0.1
9 *290:11 *290:10 0.9
10 *290:12 *290:17 4
11 *290:12 *290:14 1.36
12 *290:32 *290:11 4
13 *290:13 *290:12 0.64
14 *290:22 *1061:A 4
15 *290:31 *290:32 0.4
16 *290:30 *290:13 4
17 *290:23 *290:22 0.9
18 *290:23 *290:31 4
19 *290:30 *290:24 0.3
20 *290:24 *290:23 3
21 *290:25 *1063:A 0.72
22 *290:25 *290:24 4
23 *290:26 *290:25 0.96
24 *290:28 *290:26 4
25 *290:15 *824:A 4
26 *290:28 *290:29 0.3
27 *290:15 *290:9 0.3
28 *290:9 *290:29 0.72
29 *290:9 *290:8 3.6
30 *290:27 *290:8 4
31 *290:27 *1064:A 0.465
32 *1062:A *290:27 0.225
*END

*D_NET *291 0.0258575

*CONN
*I *644:A I *C 382.8 118.5 *L 0.0161 *D BUFX2
*I *832:Y O *C 435.6 55.5 *L 0 *D OAI22X1

*CAP
1 *644:A 0.00028335
2 *832:Y 0.00028335
3 *291:2 0.00419277
4 *291:3 0.00419277
5 *291:4 0.00361401
6 *291:5 0.00142782
7 *291:6 0.00131999
8 *291:7 0.00131999
9 *291:8 0.00263505
10 *291:8 *303:38 0.00147812
11 *291:4 *303:36 0.00147812
12 *291:6 *303:39 4.34e-06
13 *291:7 *303:40 4.34e-06
14 *291:4 *303:35 0.0001993
15 *291:5 *303:16 0.0001993
16 *291:4 *303:36 0.00051485
17 *291:5 *303:37 0.00051485
18 *291:2 *303:32 2.331e-05
19 *291:3 *303:33 2.331e-05
20 *291:2 *609:12 0.00107428
21 *291:3 *609:13 0.00107428

*RES
1 *291:7 *832:Y 4
2 *291:7 *291:6 1.2
3 *291:8 *291:6 4
4 *291:4 *291:8 1.18667
5 *291:5 *291:4 0.573333
6 *291:3 *291:5 4
7 *291:2 *644:A 4
8 *291:3 *291:2 5.1
*END

*D_NET *292 0.022763

*CONN
*I *654:A I *C 174 211.5 *L 0.0161 *D BUFX2
*I *882:Y O *C 183.6 301.5 *L 0 *D NAND3X1

*CAP
1 *654:A 0.00028335
2 *882:Y 0.00028335
3 *292:2 0.00669475
4 *292:3 0.00669475
5 *292:4 0.00151015
6 *292:5 0.00151015
7 *292:6 0.00148873
8 *292:7 0.00148873
9 *292:2 *7:30 7.673e-05
10 *292:3 *7:24 7.673e-05
11 *292:2 *7:24 0.00061388
12 *292:3 *7:25 0.00061388
13 *292:2 *7:47 2.331e-05
14 *292:3 *7:46 2.331e-05
15 *292:2 *296:5 0.00069061
16 *292:3 *296:2 0.00069061

*RES
1 *292:4 *882:Y 4
2 *292:5 *292:4 1.2
3 *292:6 *292:5 4
4 *292:7 *292:6 0.32
5 *292:2 *292:7 4
6 *292:3 *292:2 7.8
7 *654:A *292:3 4
*END

*D_NET *293 0.0279305

*CONN
*I *653:A I *C 363.6 238.5 *L 0.0161 *D BUFX2
*I *884:Y O *C 241.2 241.5 *L 0 *D NAND3X1

*CAP
1 *653:A 0.00028335
2 *884:Y 0.00175385
3 *293:2 0.00670307
4 *293:3 0.00665561
5 *293:4 0.00047494
6 *293:5 0.00047494
7 *293:6 0.00050503
8 *293:7 0.00050503
9 *293:8 0.00220623
10 *293:9 0.00215877
11 *293:10 0.00192386
12 *293:2 *219:8 0.00069754
13 *293:3 *219:9 0.00069754
14 *293:2 *219:9 0.00069754
15 *293:3 *219:10 0.00069754
16 *293:9 *219:8 5.027e-05
17 *293:8 *219:9 5.027e-05
18 *293:2 *602:63 0.00069754
19 *293:3 *602:64 0.00069754

*RES
1 *293:7 *653:A 4
2 *293:6 *293:7 0.3
3 *293:9 *293:6 4
4 *293:8 *293:9 0.72
5 *884:Y *293:10 1.92
6 *293:8 *293:2 0.1
7 *293:4 *293:10 4
8 *293:3 *293:2 2.72
9 *293:5 *293:4 0.3
10 *293:5 *293:3 4
*END

*D_NET *294 0.0104696

*CONN
*I *652:A I *C 166.8 211.5 *L 0.0161 *D BUFX2
*I *886:Y O *C 178.8 241.5 *L 0 *D NAND3X1

*CAP
1 *652:A 0.00028335
2 *886:Y 0.00028335
3 *294:2 0.00112342
4 *294:3 0.00112342
5 *294:4 0.00182253
6 *294:5 0.00182253
7 *294:6 0.00104688
8 *294:7 0.00104688
9 *294:6 *484:7 0.00049824
10 *294:7 *484:6 0.00049824
11 *294:4 *7:30 7.673e-05
12 *294:5 *7:24 7.673e-05
13 *294:4 *7:24 0.00038367
14 *294:5 *7:25 0.00038367

*RES
1 *294:4 *886:Y 4
2 *294:5 *294:4 2.1
3 *294:6 *294:5 4
4 *294:7 *294:6 0.4
5 *294:2 *294:7 4
6 *294:3 *652:A 4
7 *294:3 *294:2 0.9
*END

*D_NET *295 0.0148937

*CONN
*I *651:A I *C 294 211.5 *L 0.0161 *D BUFX2
*I *888:Y O *C 243.6 208.5 *L 0 *D NAND3X1

*CAP
1 *651:A 0.00028335
2 *888:Y 0.00065394
3 *295:2 0.00080997
4 *295:3 0.00080997
5 *295:4 0.00370749
6 *295:5 0.00370749
7 *295:6 0.00082395
8 *295:7 0.00114926
9 *295:8 0.00114926
10 *295:4 *304:33 0.00030162
11 *295:5 *304:34 0.00030162
12 *295:4 *304:31 0.00059789
13 *295:5 *304:32 0.00059789

*RES
1 *295:8 *651:A 4
2 *295:7 *295:8 0.9
3 *295:4 *295:7 4
4 *295:5 *295:4 1.44
5 *295:3 *295:5 4
6 *295:3 *295:2 0.6
7 *295:6 *295:2 4
8 *888:Y *295:6 0.72
*END

*D_NET *296 0.00722952

*CONN
*I *650:A I *C 171.6 238.5 *L 0.0161 *D BUFX2
*I *891:Y O *C 174 268.5 *L 0 *D NAND3X1

*CAP
1 *650:A 0.00028335
2 *891:Y 0.00020796
3 *296:2 0.00222377
4 *296:3 0.00043575
5 *296:4 0.0004737
6 *296:5 0.00222377
7 *296:5 *292:2 0.00069061
8 *296:2 *292:3 0.00069061

*RES
1 *296:4 *891:Y 0.24
2 *296:3 *296:4 0.3
3 *296:5 *296:3 4
4 *296:2 *296:5 2.7
5 *650:A *296:2 4
*END

*D_NET *297 0.00941712

*CONN
*I *649:A I *C 282 298.5 *L 0.0161 *D BUFX2
*I *893:Y O *C 248.4 301.5 *L 0 *D NAND3X1

*CAP
1 *649:A 0.00028335
2 *893:Y 0.00044598
3 *297:2 0.00077481
4 *297:3 0.00077481
5 *297:4 0.00061599
6 *297:5 0.0004491
7 *297:6 0.0004491
8 *297:7 0.00281199
9 *297:8 0.00281199

*RES
1 *297:3 *649:A 4
2 *297:3 *297:2 0.6
3 *297:8 *297:2 4
4 *297:7 *297:8 0.96
5 *297:6 *297:7 4
6 *297:5 *297:6 0.3
7 *893:Y *297:4 0.48
8 *297:4 *297:5 4
*END

*D_NET *298 0.0309245

*CONN
*I *648:A I *C 147.6 211.5 *L 0.0161 *D BUFX2
*I *896:Y O *C 162 301.5 *L 0 *D NAND3X1

*CAP
1 *648:A 0.00028335
2 *896:Y 0.00028335
3 *298:2 0.00291438
4 *298:3 0.00291438
5 *298:4 0.00346287
6 *298:5 0.00346287
7 *298:6 0.00132301
8 *298:7 0.00132301
9 *298:8 0.00184518
10 *298:9 0.00184518
11 *298:10 0.00117265
12 *298:11 0.00117265
13 *298:12 0.00075957
14 *298:13 0.00075957
15 *298:14 0.00150897
16 *298:15 0.00150897
17 *298:14 *4:36 0.00109614
18 *298:15 *4:37 0.00109614
19 *298:14 *544:5 0.00109614
20 *298:15 *544:6 0.00109614

*RES
1 *298:4 *896:Y 4
2 *298:5 *298:4 3.6
3 *298:14 *298:5 4
4 *298:15 *298:14 0.88
5 *298:2 *298:15 4
6 *298:3 *298:2 2.7
7 *298:13 *298:3 4
8 *298:13 *298:12 0.16
9 *298:9 *648:A 4
10 *298:6 *298:12 4
11 *298:9 *298:8 1.5
12 *298:7 *298:6 1.2
13 *298:10 *298:8 4
14 *298:11 *298:7 4
15 *298:11 *298:10 0.24
*END

*D_NET *299 0.00682018

*CONN
*I *662:A I *C 212.4 331.5 *L 0.0161 *D BUFX2
*I *899:Y O *C 214.8 361.5 *L 0 *D NAND3X1

*CAP
1 *662:A 0.00028335
2 *899:Y 0.00028335
3 *299:2 0.00099287
4 *299:3 0.00103668
5 *299:4 0.00213387
6 *299:5 0.00209006

*RES
1 *299:2 *899:Y 4
2 *299:3 *299:2 0.9
3 *299:4 *299:3 0.24
4 *299:5 *662:A 4
5 *299:5 *299:4 2.1
*END

*D_NET *300 0.0261327

*CONN
*I *647:A I *C 354 178.5 *L 0.0161 *D BUFX2
*I *840:Y O *C 409.2 115.5 *L 0 *D OAI22X1

*CAP
1 *647:A 0.00028335
2 *840:Y 0.00028335
3 *300:2 0.00171032
4 *300:3 0.00171032
5 *300:4 0.00381299
6 *300:5 0.0034056
7 *300:6 0.00474335
8 *300:7 0.00474335
9 *300:8 0.00085625
10 *300:8 *575:17 0.00038199
11 *300:4 *575:6 0.00038199
12 *300:4 *575:6 0.00190994
13 *300:5 *575:7 0.00190994

*RES
1 *300:2 *647:A 4
2 *300:3 *300:2 1.5
3 *300:5 *300:3 4
4 *300:4 *300:8 0.306667
5 *300:5 *300:4 1.53333
6 *300:6 *300:8 4
7 *300:7 *840:Y 4
8 *300:7 *300:6 4.8
*END

*D_NET *301 0.079591

*CONN
*I *848:Y O *C 438 34.5 *L 0 *D OAI22X1
*I *847:D I *C 145.2 91.5 *L 0.0332 *D OAI22X1
*I *846:D I *C 282 58.5 *L 0.0332 *D OAI22X1
*I *845:D I *C 140.4 58.5 *L 0.0332 *D OAI22X1
*I *844:D I *C 361.2 58.5 *L 0.0332 *D OAI22X1
*I *843:D I *C 162 58.5 *L 0.0332 *D OAI22X1
*I *842:D I *C 392.4 31.5 *L 0.0332 *D OAI22X1
*I *841:D I *C 212.4 58.5 *L 0.0332 *D OAI22X1

*CAP
1 *848:Y 0.00028335
2 *847:D 0.00028335
3 *846:D 0.00028335
4 *845:D 0.00028335
5 *844:D 0.00028335
6 *843:D 0.00028335
7 *842:D 0.00028335
8 *841:D 0.00028335
9 *301:8 0.00306323
10 *301:9 0.00322276
11 *301:10 0.00071259
12 *301:11 0.00050503
13 *301:12 0.00050503
14 *301:13 0.00312349
15 *301:14 0.00074896
16 *301:15 0.00312522
17 *301:16 0.00540425
18 *301:17 0.0119984
19 *301:18 0.00701485
20 *301:19 0.00209738
21 *301:20 0.00864574
22 *301:21 0.00050503
23 *301:22 0.00050503
24 *301:23 0.00186909
25 *301:24 0.00047494
26 *301:25 0.00047494
27 *301:26 0.00265788
28 *301:27 0.00045335
29 *301:28 0.00045335
30 *301:29 0.00258329
31 *301:30 0.00336763
32 *301:31 0.00336763
33 *301:32 0.00378385
34 *301:33 0.00421406
35 *301:34 0.00060973
36 *301:35 0.00087907
37 *301:36 0.00047919
38 *301:37 0.00047919

*RES
1 *301:36 *848:Y 4
2 *301:36 *301:37 0.3
3 *301:32 *301:37 4
4 *301:14 *842:D 4
5 *301:33 *301:32 1.26667
6 *301:35 *301:33 0.253333
7 *301:14 *301:13 0.6
8 *301:13 *301:35 4
9 *301:22 *844:D 4
10 *301:13 *301:26 2.4
11 *301:22 *301:21 0.3
12 *301:15 *301:26 4
13 *301:16 *301:21 4
14 *301:16 *301:15 1.04
15 *301:29 *301:16 0.8
16 *301:29 *301:30 0.05
17 *301:12 *846:D 4
18 *301:31 *301:30 1.2
19 *301:28 *841:D 4
20 *301:12 *301:11 0.3
21 *301:23 *301:31 0.05
22 *301:25 *843:D 4
23 *301:28 *301:27 0.3
24 *301:20 *301:11 4
25 *301:20 *301:23 0.64
26 *301:25 *301:24 0.3
27 *301:17 *301:27 4
28 *301:17 *301:20 2.32
29 *301:18 *301:24 4
30 *301:18 *301:17 1.68
31 *301:19 *301:18 0.56
32 *301:8 *847:D 4
33 *301:9 *301:19 4
34 *301:9 *301:8 3
35 *301:10 *301:9 0.3
36 *301:34 *845:D 4
37 *301:34 *301:10 0.48
*END

*D_NET *302 0.124611

*CONN
*I *856:Y O *C 409.2 34.5 *L 0 *D OAI22X1
*I *855:D I *C 138 118.5 *L 0.0332 *D OAI22X1
*I *854:D I *C 279.6 178.5 *L 0.0332 *D OAI22X1
*I *853:D I *C 145.2 151.5 *L 0.0332 *D OAI22X1
*I *852:D I *C 325.2 118.5 *L 0.0332 *D OAI22X1
*I *851:D I *C 174 58.5 *L 0.0332 *D OAI22X1
*I *850:D I *C 361.2 118.5 *L 0.0332 *D OAI22X1
*I *849:D I *C 205.2 91.5 *L 0.0332 *D OAI22X1

*CAP
1 *856:Y 0.00028335
2 *855:D 0.00028335
3 *854:D 0.00028335
4 *853:D 0.00028335
5 *852:D 0.00028335
6 *851:D 0.00028335
7 *850:D 0.00028335
8 *849:D 0.00028335
9 *302:8 0.00144993
10 *302:9 0.00144993
11 *302:10 0.00184517
12 *302:11 0.00184517
13 *302:12 0.00276569
14 *302:13 0.00271584
15 *302:14 0.00231306
16 *302:15 0.00403784
17 *302:16 0.00205798
18 *302:17 0.00272104
19 *302:18 0.00277089
20 *302:19 0.00553658
21 *302:20 0.00548673
22 *302:21 0.00584769
23 *302:22 0.0065099
24 *302:23 0.00822528
25 *302:24 0.00805034
26 *302:25 0.00318531
27 *302:26 0.00318531
28 *302:27 0.00252855
29 *302:28 0.00298862
30 *302:29 0.00085282
31 *302:30 0.00276712
32 *302:31 0.00158935
33 *302:32 0.00158935
34 *302:33 0.00503812
35 *302:34 0.00503812
36 *302:35 0.00078839
37 *302:36 0.00078839
38 *302:37 0.00325439
39 *302:38 0.00167915
40 *302:39 0.00110062
41 *302:40 0.00228284
42 *302:41 0.00228284
43 *302:42 0.00102739
44 *302:22 *601:82 0.00109614
45 *302:23 *601:51 0.00109614
46 *302:23 *601:82 0.00298946
47 *302:24 *601:51 0.00298946
48 *302:24 *601:82 0.0003986
49 *302:37 *601:51 0.0003986
50 *302:24 *601:51 0.0003986
51 *302:37 *601:52 0.0003986
52 *302:24 *601:52 0.00059789
53 *302:37 *601:53 0.00059789
54 *302:22 *510:2 0.00119579
55 *302:23 *510:3 0.00119579
56 *302:23 *510:2 0.00069754
57 *302:24 *510:3 0.00069754

*RES
1 *302:40 *856:Y 4
2 *302:40 *302:41 2.1
3 *302:42 *302:41 4
4 *302:38 *302:42 0.306667
5 *302:39 *302:38 0.333333
6 *302:34 *302:39 4
7 *302:17 *854:D 4
8 *302:31 *850:D 4
9 *302:34 *302:33 4.8
10 *302:18 *302:17 2.4
11 *302:10 *852:D 4
12 *302:32 *302:31 1.5
13 *302:30 *302:33 4
14 *302:19 *302:18 0.24
15 *302:11 *302:10 1.5
16 *302:21 *302:32 4
17 *302:21 *302:30 0.96
18 *302:9 *849:D 4
19 *302:20 *302:19 5.1
20 *302:22 *302:11 4
21 *302:22 *302:21 1.2
22 *302:13 *851:D 4
23 *302:9 *302:8 1.2
24 *302:23 *302:20 4
25 *302:23 *302:22 1.6
26 *302:13 *302:12 2.7
27 *302:24 *302:8 4
28 *302:24 *302:23 2.4
29 *302:16 *302:12 0.24
30 *302:37 *302:24 1.12
31 *302:16 *302:15 1.8
32 *302:15 *302:37 4
33 *302:25 *853:D 4
34 *302:15 *302:14 2.1
35 *302:26 *302:25 2.7
36 *302:27 *302:14 4
37 *302:28 *302:26 4
38 *302:28 *302:27 0.88
39 *302:29 *302:28 0.24
40 *302:35 *302:29 4
41 *302:36 *855:D 4
42 *302:36 *302:35 0.6
*END

*D_NET *303 0.115433

*CONN
*I *864:Y O *C 447.6 55.5 *L 0 *D OAI22X1
*I *863:D I *C 42 91.5 *L 0.0332 *D OAI22X1
*I *862:D I *C 265.2 58.5 *L 0.0332 *D OAI22X1
*I *861:D I *C 66 91.5 *L 0.0332 *D OAI22X1
*I *860:D I *C 361.2 91.5 *L 0.0332 *D OAI22X1
*I *859:D I *C 116.4 31.5 *L 0.0332 *D OAI22X1
*I *858:D I *C 387.6 58.5 *L 0.0332 *D OAI22X1
*I *857:D I *C 39.6 58.5 *L 0.0332 *D OAI22X1

*CAP
1 *864:Y 0.00028335
2 *863:D 0.00028335
3 *862:D 0.00028335
4 *861:D 0.00028335
5 *860:D 0.00028335
6 *859:D 0.00028335
7 *858:D 0.00028335
8 *857:D 0.00028335
9 *303:8 0.00139826
10 *303:9 0.00139826
11 *303:10 0.00481332
12 *303:11 0.00354104
13 *303:12 0.00047919
14 *303:13 0.00098422
15 *303:14 0.00078838
16 *303:15 0.00155563
17 *303:16 0.0104794
18 *303:17 0.013799
19 *303:18 0.00538939
20 *303:19 0.00288159
21 *303:20 0.00288159
22 *303:21 0.00489592
23 *303:22 0.00489592
24 *303:23 0.00282792
25 *303:24 0.00271399
26 *303:25 0.0004947
27 *303:26 0.00044485
28 *303:27 0.00044713
29 *303:28 0.00248514
30 *303:29 0.00248514
31 *303:30 0.00914182
32 *303:31 0.00910038
33 *303:32 0.00076082
34 *303:33 0.00125734
35 *303:34 0.00077987
36 *303:35 0.00202835
37 *303:36 0.00466114
38 *303:37 0.00117817
39 *303:38 0.00393183
40 *303:39 0.00100655
41 *303:40 0.00100655
42 *303:38 *291:8 0.00147812
43 *303:36 *291:4 0.00147812
44 *303:39 *291:6 4.34e-06
45 *303:40 *291:7 4.34e-06
46 *303:35 *291:4 0.0001993
47 *303:16 *291:5 0.0001993
48 *303:36 *291:4 0.00051485
49 *303:37 *291:5 0.00051485
50 *303:32 *291:2 2.331e-05
51 *303:33 *291:3 2.331e-05
52 *303:35 *305:6 0.00089684
53 *303:16 *305:7 0.00089684

*RES
1 *303:26 *857:D 4
2 *303:40 *864:Y 4
3 *303:26 *303:25 0.3
4 *303:40 *303:39 0.9
5 *303:25 *303:24 0.24
6 *303:27 *863:D 4
7 *303:38 *303:39 4
8 *303:24 *303:23 2.7
9 *303:23 *303:27 0.3
10 *303:34 *858:D 4
11 *303:36 *303:38 1.58667
12 *303:37 *303:36 0.413333
13 *303:20 *303:23 4
14 *303:34 *303:33 0.6
15 *303:33 *303:37 4
16 *303:20 *303:19 0.8
17 *303:12 *861:D 4
18 *303:28 *860:D 4
19 *303:33 *303:32 0.6
20 *303:13 *303:19 4
21 *303:13 *303:12 0.3
22 *303:9 *862:D 4
23 *303:29 *303:28 2.1
24 *303:35 *303:32 4
25 *303:14 *303:13 0.6
26 *303:9 *303:8 1.2
27 *303:16 *303:29 4
28 *303:16 *303:35 0.88
29 *303:22 *303:14 4
30 *303:17 *303:8 4
31 *303:17 *303:16 3.2
32 *303:22 *303:21 1.68
33 *303:18 *303:17 1.92
34 *303:11 *859:D 4
35 *303:15 *303:21 4
36 *303:30 *303:18 0.1
37 *303:11 *303:10 3.6
38 *303:10 *303:15 1.5
39 *303:31 *303:30 3.04
40 *303:31 *303:10 4
*END

*D_NET *304 0.116164

*CONN
*I *872:Y O *C 397.2 94.5 *L 0 *D OAI22X1
*I *871:D I *C 142.8 211.5 *L 0.0332 *D OAI22X1
*I *870:D I *C 279.6 211.5 *L 0.0332 *D OAI22X1
*I *869:D I *C 157.2 151.5 *L 0.0332 *D OAI22X1
*I *868:D I *C 361.2 151.5 *L 0.0332 *D OAI22X1
*I *867:D I *C 166.8 118.5 *L 0.0332 *D OAI22X1
*I *866:D I *C 375.6 178.5 *L 0.0332 *D OAI22X1
*I *865:D I *C 183.6 211.5 *L 0.0332 *D OAI22X1

*CAP
1 *872:Y 0.00028335
2 *871:D 0.00028335
3 *870:D 0.00028335
4 *869:D 0.00028335
5 *868:D 0.00028335
6 *867:D 0.00028335
7 *866:D 0.00028335
8 *865:D 0.00028335
9 *304:8 0.00078839
10 *304:9 0.00078839
11 *304:10 0.0029229
12 *304:11 0.0029229
13 *304:12 0.00050503
14 *304:13 0.00050503
15 *304:14 0.00182982
16 *304:15 0.00273175
17 *304:16 0.00129468
18 *304:17 0.00601786
19 *304:18 0.00596801
20 *304:19 0.00409674
21 *304:20 0.00230849
22 *304:21 0.00250978
23 *304:22 0.00122234
24 *304:23 0.00075829
25 *304:24 0.00075829
26 *304:25 0.00050503
27 *304:26 0.00139679
28 *304:27 0.00117511
29 *304:28 0.00047919
30 *304:29 0.00129342
31 *304:30 0.00114743
32 *304:31 0.00871264
33 *304:32 0.00871264
34 *304:33 0.00687091
35 *304:34 0.0101031
36 *304:35 0.00362497
37 *304:36 0.0020716
38 *304:37 0.00644485
39 *304:38 0.00644485
40 *304:39 0.00168019
41 *304:33 *2:24 0.00149473
42 *304:34 *2:25 0.00149473
43 *304:33 *2:25 0.00249122
44 *304:34 *2:31 0.00249122
45 *304:34 *2:25 0.00059789
46 *304:35 *2:31 0.00059789
47 *304:34 *2:22 0.0001993
48 *304:35 *2:23 0.0001993
49 *304:31 *2:28 1.166e-05
50 *304:32 *2:26 1.166e-05
51 *304:31 *2:26 1.166e-05
52 *304:32 *2:27 1.166e-05
53 *304:31 *2:29 0.00045242
54 *304:32 *2:30 0.00045242
55 *304:33 *295:4 0.00030162
56 *304:34 *295:5 0.00030162
57 *304:31 *295:4 0.00059789
58 *304:32 *295:5 0.00059789
59 *304:39 *575:6 0.00089684
60 *304:21 *575:7 0.00089684
61 *304:21 *575:6 0.00059789
62 *304:22 *575:7 0.00059789

*RES
1 *304:24 *868:D 4
2 *304:37 *872:Y 4
3 *304:24 *304:23 0.6
4 *304:37 *304:38 6.3
5 *304:22 *304:23 4
6 *304:39 *304:38 4
7 *304:22 *304:21 0.48
8 *304:21 *304:39 0.72
9 *304:20 *304:21 4
10 *304:20 *304:19 2.1
11 *304:19 *866:D 4
12 *304:19 *304:36 2.1
13 *304:31 *304:36 4
14 *304:32 *304:31 3.2
15 *304:12 *871:D 4
16 *304:27 *304:32 4
17 *304:25 *870:D 4
18 *304:13 *304:12 0.3
19 *304:27 *304:26 0.9
20 *304:26 *304:25 0.3
21 *304:35 *304:13 4
22 *304:33 *304:26 4
23 *304:28 *865:D 4
24 *304:35 *304:34 1.36
25 *304:34 *304:33 3.2
26 *304:29 *304:28 0.3
27 *304:29 *304:34 4
28 *304:30 *304:29 0.9
29 *304:8 *869:D 4
30 *304:17 *304:30 0.24
31 *304:9 *304:8 0.6
32 *304:18 *304:17 5.4
33 *304:16 *304:9 4
34 *304:14 *304:18 4
35 *304:16 *304:15 0.32
36 *304:15 *304:14 0.48
37 *304:10 *304:15 4
38 *304:11 *304:10 2.7
39 *867:D *304:11 4
*END

*D_NET *305 0.0284594

*CONN
*I *646:A I *C 366 151.5 *L 0.0161 *D BUFX2
*I *880:Y O *C 404.4 55.5 *L 0 *D OAI22X1

*CAP
1 *646:A 0.00028335
2 *880:Y 0.00028335
3 *305:2 0.00713331
4 *305:3 0.00713331
5 *305:4 0.0019695
6 *305:5 0.0019695
7 *305:6 0.00295491
8 *305:7 0.00278087
9 *305:8 0.0006229
10 *305:6 *303:35 0.00089684
11 *305:7 *303:16 0.00089684
12 *305:2 *306:2 0.00076735
13 *305:3 *306:3 0.00076735

*RES
1 *305:5 *880:Y 4
2 *305:5 *305:4 1.8
3 *305:8 *305:4 4
4 *305:6 *305:8 0.146667
5 *305:7 *305:6 1.13333
6 *305:2 *646:A 4
7 *305:3 *305:7 4
8 *305:3 *305:2 7.8
*END

*D_NET *306 0.0340745

*CONN
*I *645:A I *C 363.6 211.5 *L 0.0161 *D BUFX2
*I *895:Y O *C 409.2 94.5 *L 0 *D OAI22X1

*CAP
1 *645:A 0.00028335
2 *895:Y 0.00028335
3 *306:2 0.00428691
4 *306:3 0.0042402
5 *306:4 0.00083508
6 *306:5 0.00083508
7 *306:6 0.00345637
8 *306:7 0.00350308
9 *306:8 0.00285787
10 *306:9 0.00249658
11 *306:10 0.00111719
12 *306:11 0.0011639
13 *306:12 0.00207187
14 *306:13 0.00202516
15 *306:14 0.00081015
16 *306:8 *10:10 0.00069754
17 *306:9 *10:11 0.00069754
18 *306:8 *10:11 0.00029895
19 *306:9 *10:12 0.00029895
20 *306:2 *10:15 3.902e-05
21 *306:3 *10:16 3.902e-05
22 *306:6 *10:19 0.0001013
23 *306:7 *10:20 0.0001013
24 *306:2 *305:2 0.00076735
25 *306:3 *305:3 0.00076735

*RES
1 *306:6 *645:A 4
2 *306:7 *306:6 3.6
3 *306:7 *306:4 0.24
4 *306:5 *306:4 0.6
5 *306:5 *306:2 0.24
6 *306:3 *306:2 4.8
7 *306:9 *306:3 4
8 *306:8 *306:14 0.226667
9 *306:9 *306:8 1.05333
10 *306:10 *306:14 4
11 *306:11 *306:10 0.9
12 *306:11 *306:12 0.24
13 *306:13 *895:Y 4
14 *306:13 *306:12 1.8
*END

*D_NET *307 0.0436859

*CONN
*I *889:Y O *C 193.2 331.5 *L 0 *D AOI21X1
*I *888:B I *C 238.8 211.5 *L 0.0269 *D NAND3X1
*I *886:A I *C 186 241.5 *L 0.0269 *D NAND3X1
*I *884:A I *C 234 241.5 *L 0.0269 *D NAND3X1
*I *882:C I *C 181.2 304.5 *L 0.0272 *D NAND3X1

*CAP
1 *889:Y 0.00093711
2 *888:B 0.00028335
3 *886:A 0.00028335
4 *884:A 0.00127814
5 *882:C 0.00028335
6 *307:5 0.00555133
7 *307:6 0.00673937
8 *307:7 0.00172901
9 *307:8 0.00207878
10 *307:9 0.00234926
11 *307:10 0.00383613
12 *307:11 0.00383613
13 *307:12 0.00321739
14 *307:13 0.00039314
15 *307:14 0.00038987
16 *307:15 0.00326724
17 *307:16 0.00171595
18 *307:17 0.00171595
19 *307:18 0.00122502
20 *307:19 0.00075638
21 *307:20 0.00071257
22 *307:21 0.00110712

*RES
1 *307:21 *889:Y 0.945
2 *307:20 *307:21 4
3 *307:19 *307:20 0.6
4 *307:8 *307:19 0.24
5 *307:9 *882:C 4
6 *307:9 *307:8 2.1
7 *307:7 *886:A 4
8 *307:9 *307:5 0.48
9 *307:7 *307:6 1.5
10 *307:6 *307:5 4.8
11 *307:11 *307:6 4
12 *307:11 *307:10 1.2
13 *307:16 *307:10 4
14 *307:17 *307:16 1.5
15 *307:18 *307:17 4
16 *307:18 *884:A 1.185
17 *884:A *307:13 0.225
18 *307:14 *307:13 4
19 *307:14 *307:15 0.24
20 *307:12 *888:B 4
21 *307:12 *307:15 3
*END

*D_NET *308 0.0540899

*CONN
*I *901:Y O *C 154.8 331.5 *L 0 *D AOI22X1
*I *893:A I *C 241.2 301.5 *L 0.0269 *D NAND3X1
*I *888:A I *C 236.4 208.5 *L 0.0269 *D NAND3X1
*I *884:C I *C 238.8 244.5 *L 0.0272 *D NAND3X1
*I *703:A I *C 171.6 334.5 *L 0.0333 *D INVX2

*CAP
1 *901:Y 0.00028335
2 *893:A 0.0006239
3 *888:A 0.00018198
4 *884:C 0.00093757
5 *703:A 0.00106988
6 *308:5 0.00103977
7 *308:6 0.00157772
8 *308:7 0.00123989
9 *308:8 0.00415422
10 *308:9 0.00415422
11 *308:10 0.00082423
12 *308:11 0.00609032
13 *308:12 0.00604651
14 *308:13 0.00236898
15 *308:14 0.00246946
16 *308:15 0.00843574
17 *308:16 0.00843574
18 *308:17 0.00107892
19 *308:18 0.00035199
20 *308:19 0.00038987
21 *308:20 0.00038987
22 *308:21 0.00079391
23 *308:22 0.00044713
24 *308:23 0.00070475

*RES
1 *308:7 *703:A 1.2
2 *308:22 *308:7 4
3 *308:22 *308:23 0.3
4 *308:5 *308:23 0.48
5 *308:6 *901:Y 4
6 *308:6 *308:5 0.6
7 *308:17 *308:6 0.9
8 *308:16 *308:17 4
9 *308:16 *308:15 2.64
10 *308:13 *308:15 4
11 *308:21 *893:A 0.72
12 *308:14 *308:13 2.1
13 *308:14 *308:21 4
14 *308:11 *308:14 0.24
15 *308:12 *308:11 5.7
16 *308:10 *308:12 4
17 *308:10 *884:C 0.69
18 *308:20 *884:C 4
19 *308:20 *308:8 0.24
20 *308:9 *308:8 3.6
21 *308:19 *308:9 0.24
22 *888:A *308:18 0.21
23 *308:18 *308:19 4
*END

*D_NET *309 0.0584691

*CONN
*I *902:Y O *C 138 298.5 *L 0 *D AOI22X1
*I *896:A I *C 169.2 301.5 *L 0.0269 *D NAND3X1
*I *888:C I *C 241.2 205.5 *L 0.0272 *D NAND3X1
*I *886:C I *C 181.2 244.5 *L 0.0272 *D NAND3X1
*I *702:A I *C 229.2 295.5 *L 0.0333 *D INVX2

*CAP
1 *902:Y 0.00028335
2 *896:A 0.00028335
3 *888:C 0.00028335
4 *886:C 0.00028335
5 *702:A 0.0010492
6 *309:5 0.00592304
7 *309:6 0.00320199
8 *309:7 0.0030044
9 *309:8 0.00932422
10 *309:9 0.00727323
11 *309:10 0.00233434
12 *309:11 0.00047297
13 *309:12 0.00047297
14 *309:13 0.00249887
15 *309:14 0.00249887
16 *309:15 0.00389834
17 *309:16 0.00389834
18 *309:17 0.00158727
19 *309:18 0.00404761
20 *309:19 0.00285309
21 *309:20 0.00121921
22 *309:21 0.00038383
23 *309:22 0.00038383
24 *309:23 0.00050503
25 *309:24 0.00050503

*RES
1 *309:23 *902:Y 4
2 *309:23 *309:24 0.3
3 *309:21 *896:A 4
4 *309:19 *309:24 4
5 *309:22 *309:21 0.24
6 *309:19 *309:18 0.96
7 *309:18 *309:22 4
8 *309:18 *309:17 0.48
9 *309:6 *886:C 4
10 *309:7 *309:17 4
11 *309:6 *309:5 3
12 *309:5 *309:7 2.7
13 *309:16 *309:5 4
14 *309:20 *702:A 1.2
15 *309:16 *309:15 1.2
16 *309:10 *309:20 4
17 *309:11 *888:C 4
18 *309:8 *309:15 4
19 *309:8 *309:10 2.1
20 *309:12 *309:11 0.3
21 *309:9 *309:8 7.2
22 *309:13 *309:12 4
23 *309:14 *309:9 4
24 *309:14 *309:13 0.8
*END

*D_NET *310 0.0097168

*CONN
*I *900:Y O *C 226.8 328.5 *L 0 *D NAND3X1
*I *897:A I *C 210 331.5 *L 0.0323 *D AOI21X1
*I *889:B I *C 198 334.5 *L 0.0325 *D AOI21X1

*CAP
1 *900:Y 0.00063326
2 *897:A 0.00028335
3 *889:B 0.00038994
4 *310:3 0.00077678
5 *310:4 0.00077678
6 *310:5 0.00050503
7 *310:6 0.00050503
8 *310:7 0.00129469
9 *310:8 0.00080327
10 *310:9 0.00055995
11 *310:10 0.00038383
12 *310:11 0.00038383
13 *310:12 0.00075956
14 *310:13 0.0016615

*RES
1 *889:B *310:9 0.45
2 *310:10 *310:9 4
3 *310:6 *897:A 4
4 *310:10 *310:11 0.24
5 *310:8 *900:Y 0.72
6 *310:6 *310:5 0.3
7 *310:12 *310:11 4
8 *310:4 *310:8 4
9 *310:13 *310:5 4
10 *310:12 *310:13 0.16
11 *310:4 *310:3 0.6
12 *310:13 *310:7 0.32
13 *310:7 *310:3 4
*END

*D_NET *311 0.0238396

*CONN
*I *898:Y O *C 135.6 331.5 *L 0 *D AOI22X1
*I *889:C I *C 193.2 337.5 *L 0.0277 *D AOI21X1
*I *704:A I *C 202.8 355.5 *L 0.0333 *D INVX2

*CAP
1 *898:Y 0.00028335
2 *889:C 0.00093711
3 *704:A 0.00028335
4 *311:3 0.0004675
5 *311:4 0.0004675
6 *311:5 0.00129666
7 *311:6 0.00125285
8 *311:7 0.00110712
9 *311:8 0.00146983
10 *311:9 0.00146983
11 *311:10 0.006159
12 *311:11 0.00197686
13 *311:12 0.00106877
14 *311:13 0.00102496
15 *311:14 0.00457489

*RES
1 *311:6 *898:Y 4
2 *311:6 *311:5 1.2
3 *311:5 *311:12 0.24
4 *311:3 *704:A 4
5 *311:12 *311:13 0.9
6 *311:4 *311:3 0.3
7 *311:14 *311:13 4
8 *311:11 *311:4 4
9 *311:14 *311:10 1.52
10 *311:10 *311:11 0.64
11 *311:9 *311:10 4
12 *311:8 *311:9 1.5
13 *311:7 *311:8 4
14 *311:7 *889:C 0.945
*END

*D_NET *312 0.0376094

*CONN
*I *897:Y O *C 202.8 331.5 *L 0 *D AOI21X1
*I *896:C I *C 164.4 304.5 *L 0.0272 *D NAND3X1
*I *893:C I *C 246 304.5 *L 0.0272 *D NAND3X1
*I *891:C I *C 176.4 265.5 *L 0.0272 *D NAND3X1

*CAP
1 *897:Y 0.00028335
2 *896:C 0.00028335
3 *893:C 0.00020796
4 *891:C 0.00087518
5 *312:4 0.00071219
6 *312:5 0.00071219
7 *312:6 0.0016724
8 *312:7 0.00395421
9 *312:8 0.00395421
10 *312:9 0.00377614
11 *312:10 0.0045984
12 *312:11 0.00269765
13 *312:12 0.00187539
14 *312:13 0.00100518
15 *312:14 0.00037797
16 *312:15 0.00204444
17 *312:16 0.00204444
18 *312:17 0.00037797
19 *312:18 0.00077987
20 *312:19 0.00077987
21 *312:9 *594:51 0.00069754
22 *312:10 *594:49 0.00069754
23 *312:10 *594:51 0.00059789
24 *312:11 *594:49 0.00059789
25 *312:11 *594:51 0.00099649
26 *312:12 *594:49 0.00099649
27 *312:4 *594:55 6.6e-06
28 *312:5 *594:56 6.6e-06

*RES
1 *312:17 *893:C 0.24
2 *312:18 *312:17 4
3 *312:5 *896:C 4
4 *312:16 *897:Y 4
5 *312:18 *312:19 0.6
6 *312:5 *312:4 0.6
7 *312:15 *312:16 2.1
8 *312:9 *312:19 4
9 *312:12 *312:4 4
10 *312:10 *312:15 4
11 *312:10 *312:9 1.36
12 *312:12 *312:11 0.8
13 *312:11 *312:10 0.48
14 *312:7 *312:11 4
15 *312:8 *312:7 3.6
16 *312:14 *312:8 4
17 *312:13 *312:14 0.24
18 *891:C *312:6 0.96
19 *312:6 *312:13 0.9
*END

*D_NET *313 0.0184717

*CONN
*I *903:Y O *C 178.8 331.5 *L 0 *D NAND2X1
*I *902:C I *C 142.8 298.5 *L 0.033 *D AOI22X1
*I *901:C I *C 159.6 331.5 *L 0.033 *D AOI22X1
*I *898:C I *C 140.4 331.5 *L 0.033 *D AOI22X1
*I *705:A I *C 145.2 334.5 *L 0.0333 *D INVX2

*CAP
1 *903:Y 0.00028335
2 *902:C 0.00020796
3 *901:C 0.00028335
4 *898:C 0.00023916
5 *705:A 0.00028335
6 *313:5 0.00047297
7 *313:6 0.00047297
8 *313:7 0.00047919
9 *313:8 0.00047919
10 *313:9 0.00316201
11 *313:10 0.00270149
12 *313:11 0.00084435
13 *313:12 0.00194125
14 *313:13 0.00302562
15 *313:14 0.00147712
16 *313:15 0.0004737
17 *313:16 0.00043575
18 *313:17 0.00044712
19 *313:18 0.00037797
20 *313:19 0.00038383

*RES
1 *313:7 *903:Y 4
2 *313:5 *901:C 4
3 *313:8 *313:7 0.3
4 *898:C *313:17 0.27
5 *313:6 *313:5 0.3
6 *313:12 *313:8 4
7 *313:17 *313:18 0.24
8 *313:13 *313:6 4
9 *313:13 *313:12 0.64
10 *313:19 *313:18 4
11 *313:14 *313:13 0.48
12 *313:19 *313:11 0.24
13 *313:11 *705:A 4
14 *313:9 *313:14 4
15 *313:9 *313:11 0.6
16 *313:10 *313:9 2.7
17 *313:16 *313:10 4
18 *902:C *313:15 0.24
19 *313:15 *313:16 0.3
*END

*D_NET *314 0.0379055

*CONN
*I *1231:A I *C 174 415.5 *L 0.0217 *D AND2X2
*I *1228:Y O *C 229.2 355.5 *L 0 *D NOR2X1
*I *1227:C I *C 195.6 364.5 *L 0.0272 *D NAND3X1
*I *1197:C I *C 222 391.5 *L 0.033 *D AOI22X1
*I *1077:A I *C 174 355.5 *L 0.0214 *D NAND2X1
*I *899:C I *C 212.4 364.5 *L 0.0272 *D NAND3X1

*CAP
1 *1231:A 0.00028335
2 *1228:Y 0.00065393
3 *1227:C 0.00028335
4 *1197:C 0.00095199
5 *1077:A 0.00172613
6 *899:C 0.00028335
7 *314:6 0.00077986
8 *314:7 0.00077986
9 *314:8 0.00129469
10 *314:9 0.00082394
11 *314:10 0.00209738
12 *314:11 0.00299932
13 *314:12 0.00047184
14 *314:13 0.00306633
15 *314:14 0.00066334
16 *314:15 0.00149801
17 *314:16 0.00272888
18 *314:17 0.00268507
19 *314:18 0.00161279
20 *314:19 0.00042997
21 *314:20 0.00068759
22 *314:21 0.00072512
23 *314:22 0.00047919
24 *314:23 0.001122
25 *314:24 0.00287784
26 *314:25 0.00149801
27 *314:26 0.00222308
28 *314:27 0.00217927

*RES
1 *314:27 *1231:A 4
2 *314:26 *314:27 2.1
3 *314:25 *314:26 0.24
4 *314:15 *314:25 1.2
5 *314:15 *314:16 0.24
6 *314:17 *314:16 2.7
7 *1077:A *314:17 4
8 *1077:A *314:18 1.665
9 *314:19 *314:18 4
10 *314:19 *314:20 0.3
11 *314:23 *1197:C 0.96
12 *314:20 *314:21 0.48
13 *314:22 *1227:C 4
14 *314:24 *314:23 4
15 *314:21 *314:14 0.3
16 *314:14 *314:22 0.3
17 *314:13 *899:C 4
18 *314:13 *314:24 2.7
19 *314:9 *1228:Y 0.72
20 *314:10 *314:14 4
21 *314:12 *314:13 0.3
22 *314:7 *314:9 4
23 *314:10 *314:11 0.56
24 *314:11 *314:12 4
25 *314:7 *314:6 0.6
26 *314:11 *314:8 0.32
27 *314:8 *314:6 4
*END

*D_NET *315 0.0901179

*CONN
*I *1056:Y O *C 118.8 481.5 *L 0 *D NAND3X1
*I *1047:B I *C 306 418.5 *L 0.0269 *D NAND3X1
*I *903:B I *C 176.4 328.5 *L 0.0216 *D NAND2X1
*I *697:A I *C 262.8 454.5 *L 0.0333 *D INVX2

*CAP
1 *1056:Y 0.00028335
2 *1047:B 0.00028335
3 *903:B 0.00028335
4 *697:A 0.00081888
5 *315:4 0.00120634
6 *315:5 0.0007349
7 *315:6 0.0029442
8 *315:7 0.00588611
9 *315:8 0.0124394
10 *315:9 0.0129109
11 *315:10 0.00322526
12 *315:11 0.00521431
13 *315:12 0.00521431
14 *315:13 0.00543339
15 *315:14 0.00888385
16 *315:15 0.0004491
17 *315:16 0.0004491
18 *315:17 0.00384321
19 *315:18 0.00038383
20 *315:19 0.00038383
21 *315:20 0.00098889
22 *315:13 *134:7 0.00139508
23 *315:14 *134:8 0.00139508
24 *315:13 *613:4 0.00099649
25 *315:14 *613:5 0.00099649
26 *315:13 *569:15 0.00219227
27 *315:14 *569:16 0.00219227
28 *315:14 *569:15 0.00219227
29 *315:17 *569:16 0.00219227
30 *315:8 *211:22 4.34e-06
31 *315:9 *211:21 4.34e-06
32 *315:8 *211:8 0.00153469
33 *315:9 *211:9 0.00153469
34 *315:8 *211:9 0.00061388
35 *315:9 *211:16 0.00061388

*RES
1 *315:16 *1047:B 4
2 *315:16 *315:15 0.3
3 *315:11 *315:15 4
4 *315:12 *315:11 1.76
5 *315:10 *315:12 4
6 *315:20 *697:A 0.945
7 *315:18 *1056:Y 4
8 *315:10 *315:7 3.3
9 *315:7 *315:20 4
10 *315:19 *315:18 0.24
11 *315:7 *315:6 2.7
12 *315:17 *315:19 4
13 *315:13 *315:6 4
14 *315:17 *315:14 1.76
15 *315:14 *315:13 2.8
16 *315:8 *315:14 4
17 *315:9 *315:8 14.7
18 *315:9 *315:4 0.72
19 *315:5 *315:4 0.6
20 *903:B *315:5 4
*END

*D_NET *316 0.0854007

*CONN
*I *933:Y O *C 438 238.5 *L 0 *D OR2X2
*I *928:B I *C 435.6 178.5 *L 0.033 *D OAI21X1
*I *924:B I *C 435.6 118.5 *L 0.033 *D OAI21X1
*I *920:B I *C 510 178.5 *L 0.033 *D OAI21X1
*I *916:B I *C 531.6 118.5 *L 0.033 *D OAI21X1
*I *912:B I *C 531.6 178.5 *L 0.033 *D OAI21X1
*I *908:B I *C 517.2 151.5 *L 0.033 *D OAI21X1
*I *906:B I *C 483.6 178.5 *L 0.033 *D OAI22X1
*I *904:B I *C 474 151.5 *L 0.033 *D OAI22X1

*CAP
1 *933:Y 0.00028335
2 *928:B 0.00028335
3 *924:B 0.00028335
4 *920:B 0.00028335
5 *916:B 0.00028335
6 *912:B 0.00028335
7 *908:B 0.00150791
8 *906:B 0.00028335
9 *904:B 0.00028335
10 *316:9 0.00126017
11 *316:10 0.00104345
12 *316:11 0.00230454
13 *316:12 0.00235125
14 *316:13 0.00115028
15 *316:14 0.00133104
16 *316:15 0.00168386
17 *316:16 0.00156475
18 *316:17 0.00258829
19 *316:18 0.00258829
20 *316:19 0.00352952
21 *316:20 0.00348281
22 *316:21 0.00047919
23 *316:22 0.00047919
24 *316:23 0.00081422
25 *316:24 0.00081422
26 *316:25 0.00515637
27 *316:26 0.00427909
28 *316:27 0.00570103
29 *316:28 0.00321537
30 *316:29 0.00276901
31 *316:30 0.00150791
32 *316:31 0.00318267
33 *316:32 0.0027226
34 *316:33 0.00085282
35 *316:34 0.00127003
36 *316:35 0.00547485
37 *316:36 0.00547485
38 *316:37 0.00266084
39 *316:38 0.00266084
40 *316:39 0.00038673
41 *316:40 0.00072673
42 *316:41 0.00078838
43 *316:42 0.00196351
44 *316:43 0.00196351
45 *316:13 *317:2 0.00015347
46 *316:14 *317:3 0.00015347
47 *316:14 *317:2 7.673e-05
48 *316:15 *317:3 7.673e-05
49 *316:15 *317:2 0.00046041
50 *316:16 *317:3 0.00046041
51 *316:13 *317:4 1.126e-05
52 *316:14 *317:5 1.126e-05

*RES
1 *316:38 *933:Y 4
2 *316:20 *924:B 4
3 *316:37 *316:38 2.4
4 *316:20 *316:19 3
5 *316:11 *928:B 4
6 *316:36 *316:37 4
7 *316:19 *316:10 0.24
8 *316:12 *316:11 2.1
9 *316:36 *316:35 1.52
10 *316:10 *316:9 0.9
11 *316:12 *316:9 0.24
12 *316:41 *316:35 4
13 *316:9 *316:39 0.24
14 *316:24 *904:B 4
15 *316:40 *316:41 0.6
16 *316:26 *316:39 4
17 *316:24 *316:23 0.6
18 *316:40 *316:43 0.12
19 *316:26 *316:25 1.12
20 *316:25 *316:23 4
21 *316:42 *316:43 1.8
22 *316:25 *316:34 0.32
23 *316:13 *316:42 0.12
24 *316:16 *316:34 4
25 *316:14 *906:B 4
26 *316:14 *316:13 1.2
27 *316:16 *316:15 1.8
28 *316:15 *316:14 0.3
29 *316:21 *920:B 4
30 *316:32 *316:15 4
31 *316:22 *316:21 0.3
32 *316:32 *316:31 0.88
33 *316:31 *316:22 4
34 *316:31 *316:33 0.24
35 *316:17 *316:33 4
36 *316:18 *316:17 2.4
37 *908:B *316:18 4
38 *908:B *316:30 1.44
39 *316:29 *912:B 4
40 *316:27 *316:30 4
41 *316:27 *316:29 2.7
42 *316:28 *916:B 4
43 *316:28 *316:27 3.3
*END

*D_NET *317 0.0134332

*CONN
*I *905:Y O *C 476.4 211.5 *L 0 *D AOI22X1
*I *904:C I *C 481.2 154.5 *L 0.0325 *D OAI22X1

*CAP
1 *905:Y 0.00028335
2 *904:C 0.00028335
3 *317:2 0.00234039
4 *317:3 0.00207695
5 *317:4 0.00270036
6 *317:5 0.0029638
7 *317:2 *316:13 0.00015347
8 *317:3 *316:14 0.00015347
9 *317:2 *316:14 7.673e-05
10 *317:3 *316:15 7.673e-05
11 *317:2 *316:15 0.00046041
12 *317:3 *316:16 0.00046041
13 *317:4 *316:13 1.126e-05
14 *317:5 *316:14 1.126e-05
15 *317:2 *318:4 7.673e-05
16 *317:3 *318:5 7.673e-05
17 *317:2 *318:5 0.00061388
18 *317:3 *318:6 0.00061388

*RES
1 *317:3 *904:C 4
2 *317:3 *317:2 3
3 *317:5 *317:2 0.48
4 *317:5 *317:4 2.7
5 *905:Y *317:4 4
*END

*D_NET *318 0.0261265

*CONN
*I *930:Y O *C 430.8 211.5 *L 0 *D NAND2X1
*I *906:D I *C 478.8 178.5 *L 0.0332 *D OAI22X1
*I *904:D I *C 478.8 151.5 *L 0.0332 *D OAI22X1
*I *670:A I *C 483.6 154.5 *L 0.0333 *D INVX2

*CAP
1 *930:Y 0.00041594
2 *906:D 0.00028335
3 *904:D 0.00028335
4 *670:A 0.00028335
5 *318:4 0.00039821
6 *318:5 0.00266045
7 *318:6 0.0028657
8 *318:7 0.00459008
9 *318:8 0.00459008
10 *318:9 0.00058595
11 *318:10 0.00328349
12 *318:11 0.00328349
13 *318:12 0.00074263
14 *318:13 0.00047919
15 *318:4 *317:2 7.673e-05
16 *318:5 *317:3 7.673e-05
17 *318:5 *317:2 0.00061388
18 *318:6 *317:3 0.00061388

*RES
1 *318:13 *670:A 4
2 *318:12 *318:13 0.3
3 *318:6 *904:D 4
4 *318:6 *318:12 0.48
5 *318:6 *318:5 2.7
6 *318:5 *906:D 4
7 *318:5 *318:4 0.3
8 *318:7 *318:4 4
9 *318:8 *318:7 1.44
10 *318:10 *318:8 4
11 *318:10 *318:11 3
12 *318:9 *318:11 4
13 *930:Y *318:9 0.48
*END

*D_NET *319 0.00391884

*CONN
*I *907:Y O *C 469.2 178.5 *L 0 *D AOI22X1
*I *906:C I *C 476.4 175.5 *L 0.0325 *D OAI22X1

*CAP
1 *907:Y 0.00028335
2 *906:C 0.00020796
3 *319:2 0.00078215
4 *319:3 0.00104559
5 *319:4 0.00037797
6 *319:5 0.00074263
7 *319:6 0.00047919

*RES
1 *319:4 *906:C 0.24
2 *319:6 *319:4 4
3 *319:5 *319:6 0.3
4 *319:3 *319:5 0.48
5 *319:3 *319:2 0.6
6 *907:Y *319:2 4
*END

*D_NET *320 0.00137256

*CONN
*I *909:Y O *C 510 154.5 *L 0 *D OAI21X1
*I *908:C I *C 512.4 148.5 *L 0.0216 *D OAI21X1

*CAP
1 *909:Y 0.00023916
2 *908:C 0.00023916
3 *320:2 0.00044712
4 *320:3 0.00044712

*RES
1 *908:C *320:3 0.27
2 *320:2 *320:3 0.24
3 *320:2 *909:Y 0.27
*END

*D_NET *321 0.0205684

*CONN
*I *911:Y O *C 505.2 55.5 *L 0 *D NOR2X1
*I *909:A I *C 502.8 154.5 *L 0.0323 *D OAI21X1

*CAP
1 *911:Y 0.00020796
2 *909:A 0.00028335
3 *321:2 0.00814286
4 *321:3 0.00037797
5 *321:4 0.00814286
6 *321:4 0.00153469
7 *321:2 0.00153469
8 *321:4 4.662e-05
9 *321:2 4.662e-05
10 *321:4 4.662e-05
11 *321:2 4.662e-05
12 *321:4 7.879e-05
13 *321:2 7.879e-05

*RES
1 *321:3 *911:Y 0.24
2 *321:4 *909:A 4
3 *321:2 *321:3 4
4 *321:2 *321:4 9.9
*END

*D_NET *322 0.0281199

*CONN
*I *910:Y O *C 490.8 274.5 *L 0 *D OAI22X1
*I *909:B I *C 505.2 151.5 *L 0.033 *D OAI21X1

*CAP
1 *910:Y 0.00028335
2 *909:B 0.00124782
3 *322:2 0.0104476
4 *322:3 0.00141783
5 *322:4 0.0104476
6 *322:4 *330:2 0.00176489
7 *322:2 *330:3 0.00176489
8 *322:4 *330:4 0.00037297
9 *322:2 *330:5 0.00037297

*RES
1 *322:4 *910:Y 4
2 *322:3 *909:B 1.44
3 *322:2 *322:4 12.3
4 *322:2 *322:3 4
*END

*D_NET *323 0.0260459

*CONN
*I *661:A I *C 337.2 331.5 *L 0.0161 *D BUFX2
*I *936:Y O *C 277.2 394.5 *L 0 *D NOR2X1

*CAP
1 *661:A 0.00028335
2 *936:Y 0.00160593
3 *323:2 0.00575661
4 *323:3 0.00575661
5 *323:4 0.00339769
6 *323:5 0.00339769
7 *323:6 0.00177594
8 *323:7 0.00044166
9 *323:8 0.00044166
10 *323:4 *419:10 0.00159438
11 *323:5 *419:11 0.00159438

*RES
1 *936:Y *323:6 1.68
2 *323:8 *323:6 4
3 *323:7 *323:8 0.3
4 *323:5 *323:7 4
5 *323:5 *323:4 1.44
6 *323:2 *323:4 4
7 *323:3 *323:2 6
8 *661:A *323:3 4
*END

*D_NET *324 0.134415

*CONN
*I *1045:Y O *C 298.8 358.5 *L 0 *D NAND2X1
*I *1044:C I *C 375.6 268.5 *L 0.0216 *D OAI21X1
*I *932:A I *C 445.2 157.5 *L 0.027 *D NOR2X1
*I *927:A I *C 445.2 97.5 *L 0.027 *D NOR2X1
*I *923:A I *C 500.4 97.5 *L 0.027 *D NOR2X1
*I *919:A I *C 510 52.5 *L 0.027 *D NOR2X1
*I *915:A I *C 512.4 97.5 *L 0.027 *D NOR2X1
*I *911:A I *C 502.8 52.5 *L 0.027 *D NOR2X1
*I *737:A I *C 466.8 214.5 *L 0.0333 *D INVX2

*CAP
1 *1045:Y 0.00145578
2 *1044:C 0.00019498
3 *932:A 0.00028335
4 *927:A 0.00016558
5 *923:A 0.0010999
6 *919:A 0.00028335
7 *915:A 0.00028335
8 *911:A 0.00028335
9 *737:A 0.00020796
10 *324:9 0.00815616
11 *324:10 0.00815616
12 *324:11 0.006732
13 *324:12 0.006732
14 *324:13 0.0004283
15 *324:14 0.00268629
16 *324:15 0.00254134
17 *324:16 0.0004491
18 *324:17 0.0004491
19 *324:18 0.00204631
20 *324:19 0.00219119
21 *324:20 0.00047494
22 *324:21 0.00259315
23 *324:22 0.00263986
24 *324:23 0.00296932
25 *324:24 0.00447947
26 *324:25 0.00047494
27 *324:26 0.00047494
28 *324:27 0.00126991
29 *324:28 0.00040246
30 *324:29 0.00384099
31 *324:30 0.00376859
32 *324:31 0.0010209
33 *324:32 0.0010209
34 *324:33 0.00057832
35 *324:34 0.00047494
36 *324:35 0.00044166
37 *324:36 0.00044166
38 *324:37 0.0065021
39 *324:38 0.00179063
40 *324:39 0.0055228
41 *324:40 0.00472244
42 *324:41 0.00148237
43 *324:42 0.00228273
44 *324:43 0.00437806
45 *324:44 0.00437806
46 *324:45 0.00033559
47 *324:46 0.00165552
48 *324:47 0.00165552
49 *324:48 0.0017935
50 *324:49 0.00516033
51 *324:50 0.00037797
52 *324:51 0.00171466
53 *324:52 0.00171466
54 *324:53 0.00036499
55 *324:54 0.00162579
56 *324:49 *419:16 0.00177707
57 *324:37 *419:17 0.00177707
58 *324:37 *419:17 0.0008138
59 *324:38 *419:18 0.0008138
60 *324:13 *419:8 7.673e-05
61 *324:14 *419:9 7.673e-05
62 *324:14 *419:8 0.00061388
63 *324:15 *419:9 0.00061388
64 *324:40 *279:10 0.00049824
65 *324:41 *279:11 0.00049824
66 *324:43 *279:9 0.00092081
67 *324:44 *279:8 0.00092081
68 *324:43 *279:8 0.00038367
69 *324:44 *279:4 0.00038367
70 *324:45 *1219:C 5.755e-05
71 *927:A *279:14 5.755e-05
72 *324:42 *29:2 0.00020108
73 *324:39 *29:3 0.00020108
74 *324:39 *29:2 0.00025135
75 *324:40 *29:3 0.00025135
76 *324:28 *329:2 7.673e-05
77 *324:29 *329:3 7.673e-05
78 *324:29 *329:2 0.00107428
79 *324:30 *329:3 0.00107428
80 *324:9 *162:5 2.331e-05
81 *324:10 *162:4 2.331e-05
82 *324:9 *162:3 0.00061388
83 *324:10 *162:2 0.00061388

*RES
1 *1045:Y *324:54 1.68
2 *324:9 *324:54 4
3 *324:10 *324:9 8.7
4 *324:12 *324:10 4
5 *324:12 *324:11 2.08
6 *1044:C *324:53 0.225
7 *324:13 *324:11 4
8 *324:14 *324:53 4
9 *324:14 *324:13 0.3
10 *324:15 *324:14 2.7
11 *324:38 *324:15 4
12 *324:37 *324:49 2.14667
13 *324:38 *324:37 0.733333
14 *324:50 *737:A 0.24
15 *324:23 *324:49 4
16 *324:35 *911:A 4
17 *324:24 *324:50 4
18 *324:24 *324:23 2.7
19 *324:36 *324:35 0.3
20 *324:48 *324:24 1.5
21 *324:32 *324:36 4
22 *324:52 *324:48 4
23 *324:32 *324:31 0.24
24 *324:51 *324:52 0.56
25 *324:34 *324:31 4
26 *324:21 *324:51 4
27 *324:33 *919:A 4
28 *324:34 *324:33 0.3
29 *324:22 *324:21 2.4
30 *324:33 *324:30 0.24
31 *324:18 *324:22 0.24
32 *324:29 *915:A 4
33 *324:30 *324:29 4.5
34 *324:27 *923:A 1.2
35 *324:19 *932:A 4
36 *324:19 *324:18 1.8
37 *324:29 *324:28 0.3
38 *324:26 *324:27 4
39 *927:A *324:45 0.225
40 *324:20 *324:19 0.3
41 *324:42 *324:28 4
42 *324:26 *324:25 0.3
43 *324:17 *324:45 4
44 *324:46 *324:20 4
45 *324:39 *324:42 0.8
46 *324:39 *324:25 4
47 *324:17 *324:16 0.3
48 *324:47 *324:46 0.48
49 *324:40 *324:39 1.36
50 *324:40 *324:16 4
51 *324:43 *324:47 4
52 *324:41 *324:40 0.56
53 *324:44 *324:43 5.4
54 *324:44 *324:41 4
*END

*D_NET *325 0.00178852

*CONN
*I *913:Y O *C 522 175.5 *L 0 *D OAI21X1
*I *912:C I *C 526.8 181.5 *L 0.0216 *D OAI21X1

*CAP
1 *913:Y 0.00023916
2 *912:C 0.00023916
3 *325:2 0.0006551
4 *325:3 0.0006551

*RES
1 *325:3 *912:C 0.27
2 *325:2 *325:3 0.48
3 *913:Y *325:2 0.27
*END

*D_NET *326 0.0181191

*CONN
*I *915:Y O *C 514.8 94.5 *L 0 *D NOR2X1
*I *913:A I *C 514.8 175.5 *L 0.0323 *D OAI21X1

*CAP
1 *915:Y 0.00020796
2 *913:A 0.00028335
3 *326:2 0.00270008
4 *326:3 0.00265337
5 *326:4 0.00037797
6 *326:5 0.00454448
7 *326:6 0.00449777
8 *326:2 *270:6 2.251e-05
9 *326:3 *270:7 2.251e-05
10 *326:2 *270:4 2.331e-05
11 *326:3 *270:5 2.331e-05
12 *326:6 *270:4 0.00138122
13 *326:5 *270:5 0.00138122

*RES
1 *326:6 *913:A 4
2 *326:5 *326:6 5.4
3 *326:5 *326:2 0.24
4 *326:3 *326:2 2.7
5 *915:Y *326:4 0.24
6 *326:4 *326:3 4
*END

*D_NET *327 0.0300625

*CONN
*I *914:Y O *C 490.8 295.5 *L 0 *D OAI22X1
*I *913:B I *C 517.2 178.5 *L 0.033 *D OAI21X1

*CAP
1 *914:Y 0.00028335
2 *913:B 0.00028335
3 *327:2 0.00971383
4 *327:3 0.00971383
5 *327:4 0.00285385
6 *327:5 0.00285385
7 *327:6 0.0021802
8 *327:7 0.0021802

*RES
1 *327:6 *914:Y 4
2 *327:7 *327:6 1.8
3 *327:5 *327:7 4
4 *327:5 *327:4 0.88
5 *327:2 *327:4 4
6 *327:3 *327:2 9.9
7 *913:B *327:3 4
*END

*D_NET *328 0.00427002

*CONN
*I *917:Y O *C 514.8 115.5 *L 0 *D OAI21X1
*I *916:C I *C 526.8 121.5 *L 0.0216 *D OAI21X1

*CAP
1 *917:Y 0.000476
2 *916:C 0.00028335
3 *328:2 0.00126232
4 *328:3 0.00078216
5 *328:4 0.00064601
6 *328:5 0.00082018

*RES
1 *328:5 *916:C 4
2 *328:2 *328:5 0.72
3 *328:3 *328:2 0.6
4 *917:Y *328:4 0.48
5 *328:4 *328:3 4
*END

*D_NET *329 0.0138399

*CONN
*I *919:Y O *C 512.4 55.5 *L 0 *D NOR2X1
*I *917:A I *C 507.6 115.5 *L 0.0323 *D OAI21X1

*CAP
1 *919:Y 0.00020796
2 *917:A 0.00028335
3 *329:2 0.0051643
4 *329:3 0.00511759
5 *329:4 0.00038673
6 *329:5 0.00037797
7 *329:2 *324:28 7.673e-05
8 *329:3 *324:29 7.673e-05
9 *329:2 *324:29 0.00107428
10 *329:3 *324:30 0.00107428

*RES
1 *329:5 *919:Y 0.24
2 *329:3 *329:5 4
3 *329:3 *329:2 6
4 *329:4 *917:A 4
5 *329:4 *329:2 0.24
*END

*D_NET *330 0.0509563

*CONN
*I *918:Y O *C 498 334.5 *L 0 *D OAI22X1
*I *917:B I *C 510 118.5 *L 0.033 *D OAI21X1

*CAP
1 *918:Y 0.00028335
2 *917:B 0.00184574
3 *330:2 0.00847895
4 *330:3 0.00843224
5 *330:4 0.00783999
6 *330:5 0.0078867
7 *330:6 0.00173634
8 *330:7 0.00173634
9 *330:8 0.00128482
10 *330:9 0.00128482
11 *330:10 0.00211148
12 *330:11 0.00043575
13 *330:8 *208:24 4.46e-06
14 *330:9 *208:25 4.46e-06
15 *330:8 *208:25 4.46e-06
16 *330:9 *208:32 4.46e-06
17 *330:6 *208:26 0.00038367
18 *330:7 *208:27 0.00038367
19 *330:4 *208:26 6.6e-06
20 *330:5 *208:27 6.6e-06
21 *330:4 *208:33 7.673e-05
22 *330:5 *208:17 7.673e-05
23 *330:4 *208:17 0.00069061
24 *330:5 *208:18 0.00069061
25 *330:4 *208:18 7.673e-05
26 *330:5 *208:19 7.673e-05
27 *330:4 *208:31 2.331e-05
28 *330:5 *208:14 2.331e-05
29 *330:2 *208:14 2.251e-05
30 *330:3 *208:15 2.251e-05
31 *330:4 *208:14 0.00037297
32 *330:5 *208:15 0.00037297
33 *330:2 *322:4 0.00176489
34 *330:3 *322:2 0.00176489
35 *330:4 *322:4 0.00037297
36 *330:5 *322:2 0.00037297

*RES
1 *330:6 *918:Y 4
2 *330:7 *330:6 1.8
3 *330:8 *330:7 4
4 *330:9 *330:8 0.4
5 *330:4 *330:9 4
6 *330:5 *330:4 9.6
7 *330:5 *330:2 0.24
8 *330:3 *330:2 9.9
9 *330:11 *330:3 4
10 *330:10 *330:11 0.3
11 *330:10 *917:B 2.13
*END

*D_NET *331 0.00137256

*CONN
*I *921:Y O *C 502.8 175.5 *L 0 *D OAI21X1
*I *920:C I *C 505.2 181.5 *L 0.0216 *D OAI21X1

*CAP
1 *921:Y 0.00023916
2 *920:C 0.00023916
3 *331:2 0.00044712
4 *331:3 0.00044712

*RES
1 *331:3 *920:C 0.27
2 *331:2 *331:3 0.24
3 *921:Y *331:2 0.27
*END

*D_NET *332 0.0183866

*CONN
*I *923:Y O *C 502.8 94.5 *L 0 *D NOR2X1
*I *921:A I *C 495.6 175.5 *L 0.0323 *D OAI21X1

*CAP
1 *923:Y 0.00067098
2 *921:A 0.00028335
3 *332:2 0.00672138
4 *332:3 0.00084099
5 *332:4 0.00672138
6 *332:4 *234:7 0.00153469
7 *332:2 *234:8 0.00153469
8 *332:4 *234:5 3.299e-05
9 *332:2 *234:9 3.299e-05
10 *332:4 *234:5 6.6e-06
11 *332:2 *234:9 6.6e-06

*RES
1 *332:3 *923:Y 0.705
2 *332:4 *921:A 4
3 *332:2 *332:3 4
4 *332:2 *332:4 8.1
*END

*D_NET *333 0.0332038

*CONN
*I *922:Y O *C 462 295.5 *L 0 *D OAI22X1
*I *921:B I *C 498 178.5 *L 0.033 *D OAI21X1

*CAP
1 *922:Y 0.00028335
2 *921:B 0.00018198
3 *333:2 0.00388907
4 *333:3 0.00384236
5 *333:4 0.00235044
6 *333:5 0.00239715
7 *333:6 0.00211821
8 *333:7 0.00211821
9 *333:8 0.00072427
10 *333:9 0.00077098
11 *333:10 0.00251179
12 *333:11 0.00246508
13 *333:12 0.00305783
14 *333:13 0.00305783
15 *333:14 0.00035199
16 *333:12 *125:8 0.00069754
17 *333:13 *125:9 0.00069754
18 *333:2 *125:3 0.00084408
19 *333:3 *125:4 0.00084408

*RES
1 *333:4 *922:Y 4
2 *333:5 *333:4 2.4
3 *333:2 *333:5 0.24
4 *333:3 *333:2 4.2
5 *333:13 *333:3 4
6 *333:13 *333:12 1.2
7 *333:8 *333:12 4
8 *333:9 *333:8 0.6
9 *333:9 *333:6 0.24
10 *333:7 *333:6 2.1
11 *333:10 *333:7 0.24
12 *333:11 *333:10 2.4
13 *333:14 *333:11 4
14 *333:14 *921:B 0.21
*END

*D_NET *334 0.00371486

*CONN
*I *925:Y O *C 450 115.5 *L 0 *D OAI21X1
*I *924:C I *C 440.4 121.5 *L 0.0216 *D OAI21X1

*CAP
1 *925:Y 0.00028335
2 *924:C 0.00028335
3 *334:2 0.00060346
4 *334:3 0.00097062
5 *334:4 0.00097062
6 *334:5 0.00060346

*RES
1 *334:5 *925:Y 4
2 *334:3 *334:5 0.48
3 *334:3 *334:4 0.6
4 *334:2 *334:4 0.48
5 *924:C *334:2 4
*END

*D_NET *335 0.00476684

*CONN
*I *927:Y O *C 442.8 94.5 *L 0 *D NOR2X1
*I *925:A I *C 442.8 115.5 *L 0.0323 *D OAI21X1

*CAP
1 *927:Y 0.00028335
2 *925:A 0.00028335
3 *335:2 0.00210007
4 *335:3 0.00210007

*RES
1 *335:3 *925:A 4
2 *335:2 *335:3 2.1
3 *927:Y *335:2 4
*END

*D_NET *336 0.0515778

*CONN
*I *926:Y O *C 433.2 334.5 *L 0 *D OAI22X1
*I *925:B I *C 445.2 118.5 *L 0.033 *D OAI21X1

*CAP
1 *926:Y 0.00028335
2 *925:B 0.00040294
3 *336:2 0.00636767
4 *336:3 0.00630602
5 *336:4 0.00288961
6 *336:5 0.00293632
7 *336:6 0.00268063
8 *336:7 0.00268063
9 *336:8 0.0041405
10 *336:9 0.00420215
11 *336:10 0.00192435
12 *336:11 0.00192435
13 *336:12 0.00106289
14 *336:13 0.00106289
15 *336:14 0.00057295
16 *336:15 0.00038673
17 *336:16 0.00102712
18 *336:17 0.00102712
19 *336:6 *423:10 7.673e-05
20 *336:7 *423:11 7.673e-05
21 *336:6 *423:16 0.00076735
22 *336:7 *423:17 0.00076735
23 *336:2 *423:16 2.331e-05
24 *336:3 *423:17 2.331e-05
25 *336:2 *423:14 0.00184163
26 *336:3 *423:15 0.00184163
27 *336:10 *423:6 0.00016318
28 *336:11 *423:7 0.00016318
29 *336:8 *423:6 0.00027973
30 *336:9 *423:7 0.00027973
31 *336:2 *423:8 2.331e-05
32 *336:3 *423:9 2.331e-05
33 *336:2 *199:12 0.00099755
34 *336:3 *199:7 0.00099755
35 *336:2 *199:7 0.00053714
36 *336:3 *199:6 0.00053714
37 *336:2 *199:8 0.00013987
38 *336:3 *199:9 0.00013987

*RES
1 *336:6 *926:Y 4
2 *336:7 *336:6 3.3
3 *336:17 *336:7 4
4 *336:16 *336:17 0.24
5 *336:2 *336:16 4
6 *336:3 *336:2 9
7 *336:3 *336:10 0.12
8 *336:11 *336:10 2.1
9 *336:11 *336:8 0.12
10 *336:9 *336:8 4.5
11 *336:13 *336:9 4
12 *336:13 *336:12 0.32
13 *336:4 *336:12 4
14 *336:5 *336:4 2.7
15 *336:5 *336:15 0.24
16 *336:14 *336:15 4
17 *336:14 *925:B 0.465
*END

*D_NET *337 0.00511088

*CONN
*I *929:Y O *C 450 175.5 *L 0 *D OAI21X1
*I *928:C I *C 440.4 181.5 *L 0.0216 *D OAI21X1

*CAP
1 *929:Y 0.00028335
2 *928:C 0.00028335
3 *337:2 0.00047919
4 *337:3 0.00047919
5 *337:4 0.00050503
6 *337:5 0.00050503
7 *337:6 0.00128787
8 *337:7 0.00128787

*RES
1 *337:4 *929:Y 4
2 *337:4 *337:5 0.3
3 *337:7 *337:5 4
4 *337:6 *337:7 0.32
5 *337:3 *337:6 4
6 *337:3 *337:2 0.3
7 *928:C *337:2 4
*END

*D_NET *338 0.0058508

*CONN
*I *932:Y O *C 447.6 154.5 *L 0 *D NOR2X1
*I *929:A I *C 442.8 175.5 *L 0.0323 *D OAI21X1

*CAP
1 *932:Y 0.00038994
2 *929:A 0.00028335
3 *338:2 0.00055995
4 *338:3 0.00230878
5 *338:4 0.00230878

*RES
1 *338:2 *932:Y 0.45
2 *338:3 *338:2 4
3 *338:3 *338:4 2.1
4 *929:A *338:4 4
*END

*D_NET *339 0.0337138

*CONN
*I *931:Y O *C 445.2 334.5 *L 0 *D OAI22X1
*I *929:B I *C 445.2 178.5 *L 0.033 *D OAI21X1

*CAP
1 *931:Y 0.00028335
2 *929:B 0.00028335
3 *339:2 0.00376042
4 *339:3 0.00354855
5 *339:4 0.00465591
6 *339:5 0.00470262
7 *339:6 0.00362058
8 *339:7 0.00349806
9 *339:8 0.00323948
10 *339:9 0.00362058
11 *339:2 *341:2 2.331e-05
12 *339:3 *341:3 2.331e-05
13 *339:2 *341:4 0.00099755
14 *339:3 *341:5 0.00099755
15 *339:9 *341:4 0.0002098
16 *339:6 *341:5 0.0002098
17 *339:8 *341:2 1.98e-05
18 *339:7 *341:3 1.98e-05

*RES
1 *339:8 *931:Y 4
2 *339:7 *339:8 3
3 *339:7 *339:2 0.48
4 *339:3 *339:2 4.2
5 *339:9 *339:3 0.24
6 *339:6 *339:9 3.9
7 *339:5 *339:6 0.24
8 *339:4 *339:5 4.5
9 *929:B *339:4 4
*END

*D_NET *340 0.0103148

*CONN
*I *934:Y O *C 440.4 235.5 *L 0 *D OAI21X1
*I *933:A I *C 430.8 232.5 *L 0.0277 *D OR2X2
*I *930:B I *C 433.2 208.5 *L 0.0216 *D NAND2X1

*CAP
1 *934:Y 0.00028335
2 *933:A 0.00028335
3 *930:B 0.00028335
4 *340:3 0.0005259
5 *340:4 0.00047919
6 *340:5 0.00084007
7 *340:6 0.00084007
8 *340:7 0.00215456
9 *340:8 0.00200543
10 *340:9 0.00107018
11 *340:10 0.00047919
12 *340:11 0.00107018

*RES
1 *340:4 *930:B 4
2 *340:5 *934:Y 4
3 *340:4 *340:3 0.3
4 *340:6 *340:5 0.6
5 *340:8 *340:3 0.24
6 *340:10 *933:A 4
7 *340:11 *340:6 4
8 *340:8 *340:7 1.8
9 *340:7 *340:10 0.3
10 *340:9 *340:11 0.32
11 *340:9 *340:7 4
*END

*D_NET *341 0.0337164

*CONN
*I *956:Y O *C 454.8 388.5 *L 0 *D NAND3X1
*I *934:A I *C 447.6 235.5 *L 0.0323 *D OAI21X1

*CAP
1 *956:Y 0.00015598
2 *934:A 0.00046112
3 *341:2 0.00215383
4 *341:3 0.00172525
5 *341:4 0.00545562
6 *341:5 0.00551848
7 *341:6 0.00547729
8 *341:7 0.00552157
9 *341:8 0.00063113
10 *341:9 0.00205533
11 *341:10 0.00173389
12 *341:11 0.00032599
13 *341:2 *339:2 2.331e-05
14 *341:3 *339:3 2.331e-05
15 *341:4 *339:2 0.00099755
16 *341:5 *339:3 0.00099755
17 *341:4 *339:9 0.0002098
18 *341:5 *339:6 0.0002098
19 *341:2 *339:8 1.98e-05
20 *341:3 *339:7 1.98e-05

*RES
1 *956:Y *341:11 0.18
2 *341:6 *341:11 4
3 *341:7 *341:6 5.4
4 *341:7 *341:10 0.24
5 *341:9 *341:10 1.5
6 *341:2 *341:9 0.6
7 *341:3 *341:2 1.8
8 *341:4 *341:3 0.12
9 *341:5 *341:4 6.6
10 *341:8 *341:5 4
11 *934:A *341:8 0.465
*END

*D_NET *342 0.00901048

*CONN
*I *937:Y O *C 476.4 241.5 *L 0 *D NAND3X1
*I *934:B I *C 445.2 238.5 *L 0.033 *D OAI21X1

*CAP
1 *937:Y 0.00028335
2 *934:B 0.00193926
3 *342:2 0.00210927
4 *342:3 0.00078412
5 *342:4 0.00078412
6 *342:5 0.00047919
7 *342:6 0.00047919
8 *342:7 0.00107599
9 *342:8 0.00107599

*RES
1 *342:6 *937:Y 4
2 *342:6 *342:5 0.3
3 *342:8 *342:5 4
4 *342:7 *342:8 0.32
5 *342:3 *342:7 4
6 *342:4 *342:3 0.6
7 *934:B *342:2 2.16
8 *342:2 *342:4 4
*END

*D_NET *343 0.0400758

*CONN
*I *935:Y O *C 332.4 334.5 *L 0 *D NOR2X1
*I *934:C I *C 440.4 241.5 *L 0.0216 *D OAI21X1

*CAP
1 *935:Y 0.00028335
2 *934:C 0.00028335
3 *343:2 0.00354087
4 *343:3 0.00354087
5 *343:4 0.00353881
6 *343:5 0.00353881
7 *343:6 0.00742398
8 *343:7 0.00406369
9 *343:8 0.00248499
10 *343:9 0.00248499
11 *343:10 0.00159553
12 *343:11 0.00159553
13 *343:12 0.00380915
14 *343:6 *161:14 2.513e-05
15 *343:7 *161:13 2.513e-05
16 *343:4 *161:8 0.00092081
17 *343:5 *161:9 0.00092081

*RES
1 *343:11 *934:C 4
2 *343:11 *343:10 1.5
3 *343:12 *343:10 4
4 *343:6 *343:12 1.34667
5 *343:7 *343:6 1.45333
6 *343:5 *343:7 4
7 *343:5 *343:4 4.2
8 *343:8 *343:4 4
9 *343:9 *343:8 0.8
10 *343:3 *343:9 4
11 *343:3 *343:2 3.6
12 *343:2 *935:Y 4
*END

*D_NET *344 0.0272731

*CONN
*I *1217:Y O *C 241.2 361.5 *L 0 *D NAND3X1
*I *1216:A I *C 241.2 457.5 *L 0.027 *D NOR2X1
*I *936:A I *C 279.6 397.5 *L 0.027 *D NOR2X1

*CAP
1 *1217:Y 0.00028335
2 *1216:A 0.00028335
3 *936:A 0.00028335
4 *344:3 0.00588832
5 *344:4 0.00927851
6 *344:5 0.00367354
7 *344:6 0.00340749
8 *344:7 0.00340749
9 *344:8 0.00038383
10 *344:9 0.00038383

*RES
1 *344:9 *936:A 4
2 *344:8 *344:9 0.24
3 *344:6 *344:8 4
4 *344:3 *1216:A 4
5 *344:7 *344:6 1.2
6 *344:4 *344:3 6
7 *344:4 *344:7 4
8 *344:5 *344:4 3.6
9 *1217:Y *344:5 4
*END

*D_NET *345 0.00380242

*CONN
*I *938:Y O *C 481.2 235.5 *L 0 *D NOR2X1
*I *937:C I *C 474 244.5 *L 0.0272 *D NAND3X1

*CAP
1 *938:Y 0.00020796
2 *937:C 0.00028335
3 *345:2 0.00103312
4 *345:3 0.00129656
5 *345:4 0.00060346
6 *345:5 0.00037797

*RES
1 *345:5 *938:Y 0.24
2 *345:4 *345:5 4
3 *345:2 *937:C 4
4 *345:3 *345:4 0.48
5 *345:3 *345:2 0.9
*END

*D_NET *346 0.0125211

*CONN
*I *986:Y O *C 409.2 298.5 *L 0 *D NAND2X1
*I *943:C I *C 414 301.5 *L 0.0216 *D OAI21X1
*I *939:B I *C 414 271.5 *L 0.033 *D OAI21X1
*I *700:A I *C 430.8 295.5 *L 0.0333 *D INVX2

*CAP
1 *986:Y 0.00038654
2 *943:C 0.00023916
3 *939:B 0.00028335
4 *700:A 0.00071399
5 *346:4 0.00073324
6 *346:5 0.00224709
7 *346:6 0.0017972
8 *346:7 0.00068237
9 *346:8 0.00050503
10 *346:9 0.00050503
11 *346:10 0.000884
12 *346:11 0.00110065
13 *346:12 0.00110065
14 *346:4 *348:5 7.673e-05
15 *346:5 *348:4 7.673e-05
16 *346:5 *348:5 0.00053714
17 *346:6 *348:4 0.00053714
18 *346:7 *943:Y 5.755e-05
19 *986:Y *348:6 5.755e-05

*RES
1 *346:10 *700:A 0.72
2 *346:8 *346:10 4
3 *346:9 *346:8 0.3
4 *346:11 *346:9 4
5 *346:6 *939:B 4
6 *346:12 *346:11 0.32
7 *346:6 *346:5 2.1
8 *346:5 *346:12 4
9 *346:5 *346:4 0.6
10 *986:Y *346:7 0.48
11 *346:7 *346:4 4
12 *346:7 *943:C 0.27
*END

*D_NET *347 0.00280204

*CONN
*I *940:Y O *C 402 271.5 *L 0 *D AOI22X1
*I *939:C I *C 409.2 268.5 *L 0.0216 *D OAI21X1

*CAP
1 *940:Y 0.00028335
2 *939:C 0.00028335
3 *347:2 0.0004675
4 *347:3 0.00094766
5 *347:4 0.00082018

*RES
1 *347:4 *939:C 4
2 *347:3 *347:4 0.72
3 *347:3 *347:2 0.3
4 *940:Y *347:2 4
*END

*D_NET *348 0.00700006

*CONN
*I *943:Y O *C 414 295.5 *L 0 *D OAI21X1
*I *940:A I *C 406.8 271.5 *L 0.0323 *D AOI22X1

*CAP
1 *943:Y 0.00016558
2 *940:A 0.00019498
3 *348:2 0.00036499
4 *348:3 0.00038673
5 *348:4 0.00212803
6 *348:5 0.00208132
7 *348:6 0.00033559
8 *348:5 *346:4 7.673e-05
9 *348:4 *346:5 7.673e-05
10 *348:5 *346:5 0.00053714
11 *348:4 *346:6 0.00053714
12 *943:Y *346:7 5.755e-05
13 *348:6 *986:Y 5.755e-05

*RES
1 *348:6 *943:Y 0.225
2 *348:5 *348:6 4
3 *348:4 *348:5 2.4
4 *348:3 *348:4 0.24
5 *940:A *348:2 0.225
6 *348:2 *348:3 4
*END

*D_NET *349 0.0351784

*CONN
*I *1029:Y O *C 387.6 334.5 *L 0 *D OAI21X1
*I *1028:B I *C 390 214.5 *L 0.0637 *D XOR2X1
*I *940:B I *C 404.4 274.5 *L 0.0325 *D AOI22X1

*CAP
1 *1029:Y 0.00044174
2 *1028:B 0.00028335
3 *940:B 0.00020796
4 *349:3 0.00215011
5 *349:4 0.00215011
6 *349:5 0.00442392
7 *349:6 0.0004491
8 *349:7 0.00600891
9 *349:8 0.00600891
10 *349:9 0.00430245
11 *349:10 0.00206187
12 *349:11 0.00139076
13 *349:12 0.00111997
14 *349:13 0.00070979
15 *349:14 0.00117818
16 *349:15 0.00091725
17 *349:16 0.00061175
18 *349:17 0.0003843
19 *349:18 0.00037797

*RES
1 *1029:Y *349:16 0.465
2 *349:3 *349:16 4
3 *349:4 *349:3 1.8
4 *349:15 *349:4 4
5 *349:14 *349:13 0.146667
6 *349:15 *349:14 0.253333
7 *349:17 *349:13 4
8 *940:B *349:18 0.24
9 *349:17 *349:9 0.24
10 *349:5 *349:18 4
11 *349:5 *349:9 4.2
12 *349:6 *349:5 0.3
13 *349:12 *349:6 4
14 *349:10 *349:12 0.226667
15 *349:11 *349:10 0.333333
16 *349:7 *349:11 4
17 *349:8 *1028:B 4
18 *349:8 *349:7 5.7
*END

*D_NET *350 0.0172544

*CONN
*I *988:Y O *C 404.4 334.5 *L 0 *D NOR2X1
*I *951:C I *C 394.8 298.5 *L 0.033 *D AOI22X1
*I *940:C I *C 397.2 271.5 *L 0.033 *D AOI22X1
*I *699:A I *C 409.2 334.5 *L 0.0333 *D INVX2

*CAP
1 *988:Y 0.00019498
2 *951:C 0.00028335
3 *940:C 0.00020796
4 *699:A 0.00020796
5 *350:4 0.0005986
6 *350:5 0.0005986
7 *350:6 0.00037797
8 *350:7 0.00044998
9 *350:8 0.00368689
10 *350:9 0.00068568
11 *350:10 0.000714
12 *350:11 0.00613702
13 *350:12 0.00273348
14 *350:13 0.00037797

*RES
1 *350:13 *940:C 0.24
2 *350:12 *350:13 4
3 *350:12 *350:11 2.7
4 *350:11 *951:C 4
5 *350:11 *350:8 3.6
6 *350:9 *350:8 4
7 *350:6 *699:A 0.24
8 *350:10 *350:7 0.2
9 *350:9 *350:10 0.52
10 *350:7 *988:Y 0.225
11 *350:5 *350:6 4
12 *350:4 *350:7 4
13 *350:4 *350:5 0.48
*END

*D_NET *351 0.00749532

*CONN
*I *941:Y O *C 399.6 238.5 *L 0 *D XOR2X1
*I *940:D I *C 399.6 274.5 *L 0.0332 *D AOI22X1

*CAP
1 *941:Y 0.00028335
2 *940:D 0.00028335
3 *351:2 0.00346431
4 *351:3 0.00346431

*RES
1 *351:3 *940:D 4
2 *351:2 *941:Y 4
3 *351:2 *351:3 3.6
*END

*D_NET *352 0.0200878

*CONN
*I *1028:Y O *C 382.8 211.5 *L 0 *D XOR2X1
*I *1025:A I *C 402 175.5 *L 0.0323 *D OAI21X1
*I *941:A I *C 392.4 235.5 *L 0.0536 *D XOR2X1
*I *685:A I *C 397.2 175.5 *L 0.0333 *D INVX2

*CAP
1 *1028:Y 0.00083188
2 *1025:A 0.00028335
3 *941:A 0.00028335
4 *685:A 0.00041594
5 *352:4 0.00298303
6 *352:5 0.00044175
7 *352:6 0.00481853
8 *352:7 0.00047494
9 *352:8 0.00047494
10 *352:9 0.0003615
11 *352:10 0.00070293
12 *352:11 0.00079029
13 *352:12 0.00058595
14 *352:13 0.00100189
15 *352:14 0.00227725
16 *352:9 *439:13 8.304e-05
17 *352:10 *439:14 8.304e-05
18 *352:14 *439:10 0.00038367
19 *352:6 *439:11 0.00038367
20 *352:14 *439:11 7.673e-05
21 *352:6 *439:12 7.673e-05
22 *352:6 *439:11 0.00092081
23 *352:4 *439:12 0.00092081
24 *352:10 *439:14 0.00021591
25 *352:11 *439:15 0.00021591

*RES
1 *352:7 *1025:A 4
2 *1028:Y *352:13 0.96
3 *352:14 *941:A 4
4 *352:8 *352:7 0.3
5 *352:6 *352:13 4
6 *352:6 *352:14 2.4
7 *352:12 *685:A 0.48
8 *352:9 *352:8 4
9 *352:4 *352:6 3.6
10 *352:4 *352:12 4
11 *352:10 *352:9 0.0666667
12 *352:11 *352:10 0.253333
13 *352:5 *352:4 0.3
14 *352:5 *352:11 4
*END

*D_NET *353 0.00216866

*CONN
*I *942:Y O *C 416.4 238.5 *L 0 *D XOR2X1
*I *941:B I *C 406.8 235.5 *L 0.0637 *D XOR2X1

*CAP
1 *942:Y 0.00083188
2 *941:B 0.00025245
3 *353:2 0.00108433

*RES
1 *941:B *353:2 0.285
2 *353:2 *942:Y 0.96
*END

*D_NET *354 0.0219925

*CONN
*I *1243:A I *C 402 355.5 *L 0.0333 *D INVX2
*I *990:Y O *C 387.6 361.5 *L 0 *D NAND3X1
*I *943:B I *C 418.8 298.5 *L 0.033 *D OAI21X1

*CAP
1 *1243:A 0.00019833
2 *990:Y 0.00081888
3 *943:B 0.00028335
4 *354:3 0.00099798
5 *354:4 0.00099798
6 *354:5 0.00245682
7 *354:6 0.00227699
8 *354:7 0.00026903
9 *354:8 0.00023799
10 *354:9 0.00553053
11 *354:10 0.00073944
12 *354:11 0.00135036
13 *354:12 0.00030429
14 *354:13 0.00553053

*RES
1 *990:Y *354:11 0.945
2 *354:10 *354:11 0.6
3 *354:10 *354:12 0.24
4 *354:8 *1243:A 0.2
5 *354:12 *354:8 0.04
6 *354:3 *354:12 4
7 *354:4 *354:3 0.9
8 *354:7 *354:4 4
9 *354:6 *354:5 0.626667
10 *354:7 *354:6 0.0133333
11 *354:13 *354:5 4
12 *354:9 *943:B 4
13 *354:9 *354:13 4.8
*END

*D_NET *355 0.0174595

*CONN
*I *1026:Y O *C 450 214.5 *L 0 *D OAI21X1
*I *1025:C I *C 409.2 181.5 *L 0.0216 *D OAI21X1
*I *732:A I *C 409.2 214.5 *L 0.0333 *D INVX2

*CAP
1 *1026:Y 0.00028335
2 *1025:C 0.00028335
3 *732:A 0.00028335
4 *355:3 0.00050503
5 *355:4 0.00343511
6 *355:5 0.00321343
7 *355:6 0.0004491
8 *355:7 0.0004491
9 *355:8 0.00427884
10 *355:9 0.00427884

*RES
1 *355:6 *1026:Y 4
2 *355:7 *355:6 0.3
3 *355:5 *1025:C 4
4 *355:3 *732:A 4
5 *355:8 *355:7 4
6 *355:5 *355:4 3
7 *355:4 *355:3 0.3
8 *355:9 *355:8 1.36
9 *355:9 *355:4 4
*END

*D_NET *356 0.00607706

*CONN
*I *948:Y O *C 529.2 238.5 *L 0 *D XOR2X1
*I *944:A I *C 514.8 235.5 *L 0.0323 *D OAI21X1

*CAP
1 *948:Y 0.00028335
2 *944:A 0.00023916
3 *356:2 0.00086306
4 *356:3 0.00079391
5 *356:4 0.00075402
6 *356:5 0.00071461
7 *356:6 0.00123418
8 *356:7 0.00119477

*RES
1 *356:5 *948:Y 4
2 *356:5 *356:7 0.6
3 *356:6 *356:7 0.72
4 *356:4 *356:6 0.6
5 *356:3 *356:4 4
6 *944:A *356:2 0.27
7 *356:2 *356:3 0.72
*END

*D_NET *357 0.00648848

*CONN
*I *945:Y O *C 507.6 271.5 *L 0 *D AOI22X1
*I *944:C I *C 507.6 241.5 *L 0.0216 *D OAI21X1

*CAP
1 *945:Y 0.00028335
2 *944:C 0.00028335
3 *357:2 0.00296089
4 *357:3 0.00296089

*RES
1 *357:3 *945:Y 4
2 *357:2 *357:3 3
3 *944:C *357:2 4
*END

*D_NET *358 0.00631088

*CONN
*I *947:Y O *C 534 274.5 *L 0 *D NOR2X1
*I *945:A I *C 512.4 271.5 *L 0.0323 *D AOI22X1

*CAP
1 *947:Y 0.00020796
2 *945:A 0.00023916
3 *358:2 0.00092926
4 *358:3 0.0004491
5 *358:4 0.00139911
6 *358:5 0.00132996
7 *358:6 0.00037797
8 *358:7 0.0004491
9 *358:8 0.00092926

*RES
1 *358:6 *947:Y 0.24
2 *358:7 *358:6 4
3 *358:7 *358:8 0.3
4 *358:2 *358:8 0.72
5 *358:3 *358:2 0.3
6 *358:5 *358:3 4
7 *358:4 *358:5 1.2
8 *945:A *358:4 0.27
*END

*D_NET *359 0.00669416

*CONN
*I *946:Y O *C 526.8 271.5 *L 0 *D NAND2X1
*I *945:D I *C 505.2 274.5 *L 0.0332 *D AOI22X1

*CAP
1 *946:Y 0.00122001
2 *945:D 0.00028335
3 *359:2 0.00139002
4 *359:3 0.00038673
5 *359:4 0.00038673
6 *359:5 0.00050503
7 *359:6 0.00050503
8 *359:7 0.00100863
9 *359:8 0.00100863

*RES
1 *359:2 *946:Y 1.2
2 *359:5 *359:2 4
3 *359:5 *359:6 0.3
4 *359:8 *359:6 4
5 *359:7 *359:8 0.24
6 *359:4 *359:7 4
7 *359:3 *359:4 0.24
8 *945:D *359:3 4
*END

*D_NET *360 0.0198448

*CONN
*I *1039:Y O *C 486 334.5 *L 0 *D OAI21X1
*I *1038:A I *C 519.6 295.5 *L 0.0535 *D XNOR2X1
*I *684:A I *C 514.8 295.5 *L 0.0333 *D INVX2

*CAP
1 *1039:Y 0.00041594
2 *1038:A 0.00028335
3 *684:A 0.00023916
4 *360:3 0.00078839
5 *360:4 0.00078839
6 *360:5 0.00154704
7 *360:6 0.00147789
8 *360:7 0.00103239
9 *360:8 0.00103239
10 *360:9 0.00187825
11 *360:10 0.00058595
12 *360:11 0.00297437
13 *360:12 0.00297437
14 *360:13 0.00117071
15 *360:14 0.00265621

*RES
1 *1039:Y *360:10 0.48
2 *684:A *360:5 0.27
3 *360:11 *360:10 4
4 *360:6 *360:5 1.44
5 *360:12 *360:11 3
6 *360:4 *360:6 4
7 *360:8 *1038:A 4
8 *360:13 *360:12 4
9 *360:4 *360:3 0.6
10 *360:8 *360:7 0.9
11 *360:13 *360:14 0.32
12 *360:14 *360:3 4
13 *360:9 *360:7 4
14 *360:14 *360:9 0.64
*END

*D_NET *361 0.010545

*CONN
*I *949:Y O *C 526.8 211.5 *L 0 *D XOR2X1
*I *948:A I *C 522 235.5 *L 0.0536 *D XOR2X1

*CAP
1 *949:Y 0.00083188
2 *948:A 0.00028335
3 *361:2 0.00127176
4 *361:3 0.00127176
5 *361:4 0.00111467
6 *361:5 0.00106796
7 *361:6 0.0016575
8 *361:7 0.0016575
9 *361:8 0.00038673
10 *361:9 0.00100189

*RES
1 *949:Y *361:9 0.96
2 *361:5 *361:9 4
3 *361:5 *361:4 0.9
4 *361:8 *361:4 0.24
5 *361:2 *361:8 4
6 *361:3 *361:2 0.4
7 *361:7 *361:3 4
8 *361:6 *948:A 4
9 *361:7 *361:6 1.5
*END

*D_NET *362 0.0179903

*CONN
*I *1038:Y O *C 529.2 298.5 *L 0 *D XNOR2X1
*I *1023:A I *C 543.6 235.5 *L 0.0323 *D OAI21X1
*I *948:B I *C 536.4 235.5 *L 0.0637 *D XOR2X1
*I *682:A I *C 543.6 295.5 *L 0.0333 *D INVX2

*CAP
1 *1038:Y 0.00128403
2 *1023:A 0.00019498
3 *948:B 0.0004123
4 *682:A 0.00071516
5 *362:4 0.00546985
6 *362:5 0.00546985
7 *362:6 0.00113876
8 *362:7 0.00064601
9 *362:8 0.00038733
10 *362:9 0.0007488
11 *362:10 0.00152319

*RES
1 *1038:Y *362:10 1.38
2 *682:A *362:10 0.27
3 *362:7 *682:A 0.48
4 *362:4 *362:7 4
5 *362:5 *362:4 5.4
6 *362:8 *362:5 4
7 *362:8 *362:9 0.24
8 *948:B *362:6 0.465
9 *362:6 *362:9 0.6
10 *362:6 *1023:A 0.225
*END

*D_NET *363 0.0403721

*CONN
*I *1024:Y O *C 418.8 175.5 *L 0 *D OAI21X1
*I *1023:C I *C 550.8 241.5 *L 0.0216 *D OAI21X1
*I *949:A I *C 519.6 214.5 *L 0.0536 *D XOR2X1

*CAP
1 *1024:Y 0.00023916
2 *1023:C 0.00028335
3 *949:A 0.00028335
4 *363:3 0.00307269
5 *363:4 0.00385184
6 *363:5 0.00156609
7 *363:6 0.00163524
8 *363:7 0.00292687
9 *363:8 0.00292687
10 *363:9 0.00814554
11 *363:10 0.00814554
12 *363:11 0.0010625
13 *363:12 0.00038673
14 *363:13 0.00038673
15 *363:14 0.00272981
16 *363:15 0.00272981

*RES
1 *363:13 *1023:C 4
2 *363:12 *363:13 0.24
3 *363:15 *363:12 4
4 *363:14 *363:15 0.96
5 *363:3 *363:14 4
6 *363:4 *949:A 4
7 *363:4 *363:3 2.7
8 *363:11 *363:4 0.9
9 *363:9 *363:11 4
10 *363:10 *363:9 2.88
11 *363:7 *363:10 4
12 *363:8 *363:7 2.7
13 *363:5 *363:8 4
14 *363:6 *363:5 1.44
15 *1024:Y *363:6 0.27
*END

*D_NET *364 0.00256838

*CONN
*I *955:Y O *C 440.4 274.5 *L 0 *D OAI21X1
*I *950:A I *C 442.8 268.5 *L 0.0269 *D NAND3X1

*CAP
1 *955:Y 0.00028335
2 *950:A 0.00028335
3 *364:2 0.00038673
4 *364:3 0.00078412
5 *364:4 0.00083083

*RES
1 *364:3 *950:A 4
2 *364:3 *364:4 0.6
3 *364:2 *364:4 0.24
4 *955:Y *364:2 4
*END

*D_NET *365 0.00744904

*CONN
*I *954:Y O *C 447.6 301.5 *L 0 *D NAND3X1
*I *950:B I *C 445.2 271.5 *L 0.0269 *D NAND3X1

*CAP
1 *954:Y 0.00028335
2 *950:B 0.00028335
3 *365:2 0.00266014
4 *365:3 0.00261343
5 *365:4 0.00082774
6 *365:5 0.00078103

*RES
1 *365:5 *954:Y 4
2 *365:4 *365:5 0.6
3 *365:2 *365:4 0.24
4 *365:3 *365:2 2.4
5 *950:B *365:3 4
*END

*D_NET *366 0.0180404

*CONN
*I *951:Y O *C 399.6 298.5 *L 0 *D AOI22X1
*I *950:C I *C 447.6 265.5 *L 0.0272 *D NAND3X1

*CAP
1 *951:Y 0.00028335
2 *950:C 0.00028335
3 *366:2 0.00216224
4 *366:3 0.00220895
5 *366:4 0.00115965
6 *366:5 0.00111294
7 *366:6 0.00047184
8 *366:7 0.00047184
9 *366:8 0.00463426
10 *366:9 0.0047187
11 *366:10 0.0005333

*RES
1 *366:7 *950:C 4
2 *366:7 *366:6 0.3
3 *366:8 *366:6 4
4 *366:9 *366:8 1.58667
5 *366:10 *366:9 0.0933333
6 *366:5 *366:10 4
7 *366:5 *366:4 0.9
8 *366:4 *366:3 0.24
9 *366:3 *366:2 2.1
10 *366:2 *951:Y 4
*END

*D_NET *367 0.0166353

*CONN
*I *989:Y O *C 378 301.5 *L 0 *D NOR3X1
*I *988:B I *C 402 331.5 *L 0.0277 *D NOR2X1
*I *951:A I *C 404.4 298.5 *L 0.0323 *D AOI22X1

*CAP
1 *989:Y 0.00105127
2 *988:B 0.00019833
3 *951:A 0.00028335
4 *367:3 0.00122128
5 *367:4 0.00128008
6 *367:5 0.00297855
7 *367:6 0.00317439
8 *367:7 0.00047919
9 *367:8 0.00125176
10 *367:9 0.00112206
11 *367:10 0.00129406
12 *367:11 0.00062086
13 *367:12 0.00084007
14 *367:13 0.00084007

*RES
1 *989:Y *367:3 1.17
2 *367:4 *988:B 0.2
3 *367:8 *367:4 1
4 *367:13 *951:A 4
5 *367:7 *367:3 4
6 *367:5 *367:8 4
7 *367:13 *367:12 0.6
8 *367:7 *367:6 0.3
9 *367:6 *367:5 2.7
10 *367:11 *367:12 4
11 *367:9 *367:6 4
12 *367:10 *367:11 0.146667
13 *367:9 *367:10 0.333333
*END

*D_NET *368 0.0169166

*CONN
*I *952:Y O *C 351.6 331.5 *L 0 *D XOR2X1
*I *951:D I *C 397.2 295.5 *L 0.0332 *D AOI22X1

*CAP
1 *952:Y 0.00028335
2 *951:D 0.00149319
3 *368:2 0.00290065
4 *368:3 0.00290065
5 *368:4 0.00299769
6 *368:5 0.00299769
7 *368:6 0.00084007
8 *368:7 0.00084007
9 *368:8 0.0016632

*RES
1 *368:8 *951:D 1.68
2 *368:7 *368:8 4
3 *368:7 *368:6 0.6
4 *368:4 *368:6 4
5 *368:5 *368:4 0.96
6 *368:3 *368:5 4
7 *368:3 *368:2 3
8 *368:2 *952:Y 4
*END

*D_NET *369 0.00812334

*CONN
*I *953:Y O *C 339.6 298.5 *L 0 *D XOR2X1
*I *952:B I *C 344.4 334.5 *L 0.0637 *D XOR2X1

*CAP
1 *953:Y 0.00020796
2 *952:B 0.00028335
3 *369:2 0.00037797
4 *369:3 0.0028736
5 *369:4 0.00291788
6 *369:5 0.00075343
7 *369:6 0.00070915

*RES
1 *369:6 *952:B 4
2 *369:5 *369:6 0.6
3 *369:4 *369:5 0.24
4 *369:3 *369:4 3
5 *369:2 *369:3 4
6 *953:Y *369:2 0.24
*END

*D_NET *370 0.0378772

*CONN
*I *1044:Y O *C 375.6 274.5 *L 0 *D OAI21X1
*I *1033:A I *C 332.4 274.5 *L 0.0536 *D XOR2X1
*I *1032:C I *C 349.2 268.5 *L 0.0216 *D OAI21X1
*I *1028:A I *C 375.6 214.5 *L 0.0536 *D XOR2X1
*I *953:A I *C 332.4 295.5 *L 0.0536 *D XOR2X1
*I *698:A I *C 358.8 295.5 *L 0.0333 *D INVX2

*CAP
1 *1044:Y 0.00028335
2 *1033:A 0.00028335
3 *1032:C 0.00020796
4 *1028:A 0.00028335
5 *953:A 0.00028335
6 *698:A 0.00083188
7 *370:6 0.00111844
8 *370:7 0.00107173
9 *370:8 0.00047494
10 *370:9 0.00188625
11 *370:10 0.00174137
12 *370:11 0.0077042
13 *370:12 0.0060138
14 *370:13 0.00173383
15 *370:14 0.0019012
16 *370:15 0.00175024
17 *370:16 0.00043431
18 *370:17 0.00100189
19 *370:18 0.00037797
20 *370:19 0.00197375
21 *370:20 0.00393056
22 *370:21 0.00258948

*RES
1 *1032:C *370:18 0.24
2 *370:7 *370:18 4
3 *370:7 *370:6 0.9
4 *370:17 *698:A 0.96
5 *370:15 *1033:A 4
6 *370:16 *953:A 4
7 *370:10 *370:6 0.24
8 *370:8 *370:17 4
9 *370:15 *370:14 1.8
10 *370:14 *370:16 0.3
11 *370:10 *370:9 1.5
12 *370:9 *370:8 0.3
13 *370:13 *370:14 4
14 *370:20 *370:9 4
15 *370:13 *370:20 0.56
16 *370:20 *370:21 0.88
17 *370:19 *370:21 4
18 *370:11 *1044:Y 4
19 *370:11 *370:19 1.8
20 *370:12 *1028:A 4
21 *370:12 *370:11 6
*END

*D_NET *371 0.0345167

*CONN
*I *992:Y O *C 385.2 451.5 *L 0 *D XOR2X1
*I *983:A I *C 409.2 394.5 *L 0.0323 *D OAI21X1
*I *672:A I *C 409.2 355.5 *L 0.0333 *D INVX2

*CAP
1 *992:Y 0.00028335
2 *983:A 0.00018198
3 *672:A 0.00023916
4 *371:3 0.00190586
5 *371:4 0.00190586
6 *371:5 0.00543417
7 *371:6 0.00543417
8 *371:7 0.00305039
9 *371:8 0.00305039
10 *371:9 0.00044712
11 *371:10 0.00037797
12 *371:11 0.00075393
13 *371:12 0.00185702
14 *371:13 0.0023827
15 *371:14 0.00133572
16 *371:15 0.00035199
17 *371:5 *165:31 7.673e-05
18 *371:6 *165:27 7.673e-05
19 *371:5 *165:27 0.00061388
20 *371:6 *165:16 0.00061388
21 *371:5 *165:16 0.00084408
22 *371:6 *165:17 0.00084408
23 *371:3 *165:31 7.673e-05
24 *371:4 *165:27 7.673e-05
25 *371:3 *165:27 0.00053714
26 *371:4 *165:16 0.00053714
27 *371:3 *410:5 0.00061388
28 *371:4 *410:4 0.00061388

*RES
1 *371:7 *992:Y 4
2 *371:15 *983:A 0.21
3 *371:8 *371:7 3
4 *371:4 *371:15 4
5 *371:12 *371:8 4
6 *371:4 *371:3 2.7
7 *371:13 *371:14 0.226667
8 *371:12 *371:13 0.493333
9 *371:14 *371:3 4
10 *371:14 *371:11 0.16
11 *371:5 *371:11 4
12 *371:6 *371:5 6.3
13 *371:10 *371:6 4
14 *672:A *371:9 0.27
15 *371:9 *371:10 0.24
*END

*D_NET *372 0.045968

*CONN
*I *1034:Y O *C 320.4 334.5 *L 0 *D OAI21X1
*I *1033:B I *C 318 274.5 *L 0.0637 *D XOR2X1
*I *955:A I *C 433.2 274.5 *L 0.0323 *D OAI21X1
*I *954:A I *C 440.4 301.5 *L 0.0269 *D NAND3X1

*CAP
1 *1034:Y 0.00028335
2 *1033:B 0.00028335
3 *955:A 0.00019498
4 *954:A 0.00049116
5 *372:4 0.00464397
6 *372:5 0.00499251
7 *372:6 0.00541146
8 *372:7 0.005364
9 *372:8 0.00047184
10 *372:9 0.00224549
11 *372:10 0.00250893
12 *372:11 0.00144424
13 *372:12 0.00139753
14 *372:13 0.00390122
15 *372:14 0.00408163
16 *372:15 0.00031591
17 *372:16 0.00251097
18 *372:17 0.00251097
19 *372:18 0.00067078
20 *372:19 0.00036499
21 *372:20 0.00047919
22 *372:21 0.00073838
23 *372:22 0.00066117

*RES
1 *372:22 *954:A 0.465
2 *372:9 *372:22 4
3 *372:19 *955:A 0.225
4 *372:10 *372:9 2.1
5 *372:20 *372:19 4
6 *372:21 *372:10 0.48
7 *372:20 *372:18 0.3
8 *372:18 *372:21 0.3
9 *372:14 *372:18 4
10 *372:13 *372:14 1.02667
11 *372:15 *372:13 0.0133333
12 *372:15 *372:16 0.1
13 *372:12 *1033:B 4
14 *372:17 *372:16 0.8
15 *372:12 *372:11 1.2
16 *372:4 *1034:Y 4
17 *372:17 *372:6 0.1
18 *372:11 *372:5 0.24
19 *372:5 *372:4 4.8
20 *372:7 *372:6 1.84
21 *372:8 *372:5 0.3
22 *372:8 *372:7 4
*END

*D_NET *373 0.0622166

*CONN
*I *1036:Y O *C 462 154.5 *L 0 *D OAI21X1
*I *1032:B I *C 344.4 271.5 *L 0.033 *D OAI21X1
*I *955:B I *C 435.6 271.5 *L 0.033 *D OAI21X1
*I *954:B I *C 442.8 298.5 *L 0.0269 *D NAND3X1
*I *731:A I *C 339.6 274.5 *L 0.0333 *D INVX2

*CAP
1 *1036:Y 0.00019498
2 *1032:B 0.00028335
3 *955:B 0.00028335
4 *954:B 0.00028335
5 *731:A 0.00028335
6 *373:5 0.00074263
7 *373:6 0.00070087
8 *373:7 0.00050503
9 *373:8 0.00071254
10 *373:9 0.0004491
11 *373:10 0.00230425
12 *373:11 0.00230425
13 *373:12 0.0052572
14 *373:13 0.00506561
15 *373:14 0.00652103
16 *373:15 0.00652103
17 *373:16 0.00269496
18 *373:17 0.00269496
19 *373:18 0.00983136
20 *373:19 0.00626556
21 *373:20 0.00112072
22 *373:21 0.00112072
23 *373:22 0.00401466
24 *373:23 0.00047919
25 *373:24 0.00083083
26 *373:25 0.00036499
27 *373:26 0.00038673

*RES
1 *373:9 *731:A 4
2 *373:9 *373:8 0.3
3 *373:7 *1032:B 4
4 *373:8 *373:5 0.48
5 *373:10 *954:B 4
6 *373:7 *373:6 0.3
7 *373:6 *373:5 0.3
8 *373:11 *373:10 2.1
9 *373:19 *373:6 4
10 *373:20 *373:11 4
11 *373:18 *373:22 1.10667
12 *373:19 *373:18 1.85333
13 *373:21 *373:20 0.24
14 *373:26 *373:22 4
15 *373:23 *373:21 4
16 *373:26 *373:24 0.24
17 *373:24 *373:23 0.3
18 *373:12 *955:B 4
19 *373:12 *373:24 0.3
20 *373:13 *373:12 5.1
21 *373:17 *373:13 4
22 *373:17 *373:16 0.8
23 *373:14 *373:16 4
24 *373:15 *373:14 6.6
25 *373:25 *373:15 4
26 *373:25 *1036:Y 0.225
*END

*D_NET *374 0.00355856

*CONN
*I *976:Y O *C 433.2 394.5 *L 0 *D NOR2X1
*I *956:A I *C 447.6 388.5 *L 0.0269 *D NAND3X1

*CAP
1 *976:Y 0.0006239
2 *956:A 0.0006239
3 *374:2 0.00115538
4 *374:3 0.00115538

*RES
1 *374:2 *956:A 0.72
2 *374:2 *374:3 0.6
3 *976:Y *374:3 0.72
*END

*D_NET *375 0.0126575

*CONN
*I *957:Y O *C 502.8 394.5 *L 0 *D NOR2X1
*I *956:C I *C 452.4 385.5 *L 0.0272 *D NAND3X1

*CAP
1 *957:Y 0.00180091
2 *956:C 0.00028335
3 *375:2 0.00047919
4 *375:3 0.00047919
5 *375:4 0.00304211
6 *375:5 0.00304211
7 *375:6 0.00197092
8 *375:7 0.00077987
9 *375:8 0.00077987

*RES
1 *375:6 *957:Y 1.905
2 *375:8 *375:6 4
3 *375:7 *375:8 0.6
4 *375:4 *375:7 4
5 *375:5 *375:4 1.04
6 *375:2 *375:5 4
7 *375:3 *375:2 0.3
8 *956:C *375:3 4
*END

*D_NET *376 0.00261116

*CONN
*I *962:Y O *C 531.6 331.5 *L 0 *D XOR2X1
*I *958:A I *C 519.6 334.5 *L 0.0323 *D OAI21X1

*CAP
1 *962:Y 0.00083188
2 *958:A 0.00020796
3 *376:2 0.0004737
4 *376:3 0.00109762

*RES
1 *376:3 *962:Y 0.96
2 *958:A *376:2 0.24
3 *376:3 *376:2 0.3
*END

*D_NET *377 0.00790152

*CONN
*I *959:Y O *C 510 358.5 *L 0 *D AOI22X1
*I *958:C I *C 512.4 328.5 *L 0.0216 *D OAI21X1

*CAP
1 *959:Y 0.00028335
2 *958:C 0.00020374
3 *377:2 0.00037375
4 *377:3 0.00198565
5 *377:4 0.00198565
6 *377:4 *167:21 7.673e-05
7 *377:3 *167:22 7.673e-05
8 *377:4 *167:22 0.00069061
9 *377:3 *167:23 0.00069061
10 *377:4 *397:12 0.00076735
11 *377:3 *397:13 0.00076735

*RES
1 *377:4 *959:Y 4
2 *377:2 *958:C 0.225
3 *377:3 *377:4 3
4 *377:3 *377:2 4
*END

*D_NET *378 0.0101941

*CONN
*I *961:Y O *C 529.2 394.5 *L 0 *D NOR2X1
*I *959:A I *C 514.8 358.5 *L 0.0323 *D AOI22X1

*CAP
1 *961:Y 0.00028335
2 *959:A 0.00130788
3 *378:2 0.00147789
4 *378:3 0.0035625
5 *378:4 0.0035625

*RES
1 *378:4 *961:Y 4
2 *378:3 *378:4 3.6
3 *959:A *378:2 1.44
4 *378:2 *378:3 4
*END

*D_NET *379 0.0177

*CONN
*I *960:Y O *C 536.4 391.5 *L 0 *D NAND2X1
*I *959:D I *C 507.6 355.5 *L 0.0332 *D AOI22X1

*CAP
1 *960:Y 0.00041594
2 *959:D 0.0005482
3 *379:2 0.00221385
4 *379:3 0.00221385
5 *379:4 0.00047919
6 *379:5 0.00047919
7 *379:6 0.00328858
8 *379:7 0.00328858
9 *379:8 0.00071821
10 *379:9 0.00058595
11 *379:2 *144:2 0.00084408
12 *379:3 *144:3 0.00084408
13 *379:2 *166:22 0.00076735
14 *379:3 *166:23 0.00076735
15 *959:D *959:C 0.00012278
16 *379:8 *166:32 0.00012278

*RES
1 *379:9 *960:Y 0.48
2 *379:4 *379:9 4
3 *379:5 *379:4 0.3
4 *379:6 *379:5 4
5 *379:7 *379:6 1.04
6 *379:2 *379:7 4
7 *379:3 *379:2 3.3
8 *379:8 *379:3 4
9 *379:8 *959:D 0.705
*END

*D_NET *380 0.0230431

*CONN
*I *1020:Y O *C 486 355.5 *L 0 *D OAI21X1
*I *1019:A I *C 519.6 415.5 *L 0.0535 *D XNOR2X1
*I *687:A I *C 522 394.5 *L 0.0333 *D INVX2

*CAP
1 *1020:Y 0.0006239
2 *1019:A 0.00083188
3 *687:A 0.00103984
4 *380:3 0.00201629
5 *380:4 0.00201629
6 *380:5 0.00387603
7 *380:6 0.00387603
8 *380:7 0.00079391
9 *380:8 0.00120985
10 *380:9 0.00100189
11 *380:10 0.00050503
12 *380:11 0.00273691
13 *380:12 0.00251523

*RES
1 *380:9 *1019:A 0.96
2 *380:8 *687:A 1.2
3 *380:12 *380:9 4
4 *380:11 *380:8 4
5 *380:11 *380:12 2.1
6 *380:10 *380:11 0.3
7 *380:3 *380:10 4
8 *380:4 *380:3 0.56
9 *380:5 *380:4 4
10 *380:6 *380:5 3.6
11 *1020:Y *380:7 0.72
12 *380:7 *380:6 4
*END

*D_NET *381 0.0452602

*CONN
*I *1017:Y O *C 538.8 214.5 *L 0 *D OAI21X1
*I *1016:C I *C 553.2 361.5 *L 0.0216 *D OAI21X1
*I *963:A I *C 555.6 334.5 *L 0.0536 *D XOR2X1
*I *733:A I *C 543.6 394.5 *L 0.0333 *D INVX2

*CAP
1 *1017:Y 0.00028335
2 *1016:C 0.00028335
3 *963:A 0.00028335
4 *733:A 0.00028335
5 *381:4 0.00869894
6 *381:5 0.00766139
7 *381:6 0.00308296
8 *381:7 0.00391852
9 *381:8 0.00116319
10 *381:9 0.00045335
11 *381:10 0.00045335
12 *381:11 0.0022955
13 *381:12 0.0022955
14 *381:13 0.00169617
15 *381:14 0.00169617
16 *381:15 0.00136518
17 *381:16 0.00106229
18 *381:17 0.00106229
19 *381:15 *433:5 0.00030694
20 *381:4 *433:6 0.00030694
21 *381:4 *433:5 0.00099755
22 *381:5 *433:6 0.00099755
23 *381:4 *433:6 0.00053714
24 *381:5 *433:7 0.00053714
25 *381:15 *433:3 1.126e-05
26 *381:4 *433:4 1.126e-05
27 *381:7 *433:3 6.993e-05
28 *381:8 *433:4 6.993e-05
29 *381:6 *432:5 0.00069061
30 *381:7 *432:3 0.00069061
31 *381:7 *432:5 0.00015347
32 *381:8 *432:3 0.00015347
33 *381:4 *436:2 0.00084408
34 *381:5 *436:3 0.00084408

*RES
1 *381:10 *733:A 4
2 *381:10 *381:9 0.3
3 *381:16 *381:9 4
4 *381:16 *381:17 0.32
5 *381:6 *381:17 4
6 *381:7 *1016:C 4
7 *381:7 *381:6 3.6
8 *381:8 *381:7 1.2
9 *381:8 *381:15 0.24
10 *381:4 *963:A 4
11 *381:4 *381:15 1.5
12 *381:5 *381:4 9.9
13 *381:13 *381:5 4
14 *381:14 *381:13 0.56
15 *381:11 *381:14 4
16 *381:12 *1017:Y 4
17 *381:12 *381:11 2.1
*END

*D_NET *382 0.00209008

*CONN
*I *963:Y O *C 548.4 331.5 *L 0 *D XOR2X1
*I *962:A I *C 538.8 334.5 *L 0.0536 *D XOR2X1

*CAP
1 *963:Y 0.00080588
2 *962:A 0.00023916
3 *382:2 0.00104504

*RES
1 *382:2 *963:Y 0.93
2 *382:2 *962:A 0.27
*END

*D_NET *383 0.0250053

*CONN
*I *1019:Y O *C 529.2 418.5 *L 0 *D XNOR2X1
*I *1016:A I *C 546 355.5 *L 0.0323 *D OAI21X1
*I *962:B I *C 524.4 334.5 *L 0.0637 *D XOR2X1
*I *686:A I *C 543.6 415.5 *L 0.0333 *D INVX2

*CAP
1 *1019:Y 0.00060196
2 *1016:A 0.00080588
3 *962:B 0.00028335
4 *686:A 0.00025245
5 *383:4 0.00655269
6 *383:5 0.00655269
7 *383:6 0.00196245
8 *383:7 0.00126991
9 *383:8 0.00225249
10 *383:9 0.00225249
11 *383:10 0.00131257
12 *383:11 0.00090639

*RES
1 *686:A *383:11 0.285
2 *1019:Y *383:10 0.66
3 *383:10 *383:11 0.72
4 *383:4 *383:10 4
5 *383:5 *383:4 6.3
6 *383:6 *383:5 4
7 *383:6 *1016:A 0.93
8 *383:7 *383:6 1.2
9 *383:9 *383:7 4
10 *383:8 *962:B 4
11 *383:8 *383:9 2.1
*END

*D_NET *384 0.0131847

*CONN
*I *968:Y O *C 505.2 511.5 *L 0 *D XOR2X1
*I *964:A I *C 507.6 454.5 *L 0.0323 *D OAI21X1

*CAP
1 *968:Y 0.00020796
2 *964:A 0.00028335
3 *384:2 0.00037797
4 *384:3 0.00261094
5 *384:4 0.00265522
6 *384:5 0.00157073
7 *384:6 0.00199932
8 *384:7 0.00197606
9 *384:8 0.00150319

*RES
1 *384:8 *964:A 4
2 *384:8 *384:7 1.5
3 *384:6 *384:7 0.72
4 *384:6 *384:5 1.5
5 *384:5 *384:4 0.24
6 *384:4 *384:3 2.7
7 *384:2 *384:3 4
8 *384:2 *968:Y 0.24
*END

*D_NET *385 0.00483144

*CONN
*I *965:Y O *C 514.8 451.5 *L 0 *D AOI22X1
*I *964:C I *C 500.4 448.5 *L 0.0216 *D OAI21X1

*CAP
1 *965:Y 0.00028335
2 *964:C 0.00028335
3 *385:2 0.00047494
4 *385:3 0.00047494
5 *385:4 0.00127313
6 *385:5 0.00127313
7 *385:6 0.0003843
8 *385:7 0.0003843

*RES
1 *385:2 *965:Y 4
2 *385:3 *385:2 0.3
3 *385:4 *385:3 4
4 *385:5 *385:4 0.4
5 *385:7 *385:5 4
6 *385:6 *385:7 0.24
7 *964:C *385:6 4
*END

*D_NET *386 0.00829676

*CONN
*I *967:Y O *C 546 454.5 *L 0 *D NOR2X1
*I *965:A I *C 519.6 451.5 *L 0.0323 *D AOI22X1

*CAP
1 *967:Y 0.00028335
2 *965:A 0.00028335
3 *386:2 0.00078412
4 *386:3 0.00078412
5 *386:4 0.00047919
6 *386:5 0.00047919
7 *386:6 0.00260172
8 *386:7 0.00260172

*RES
1 *386:2 *967:Y 4
2 *386:3 *386:2 0.6
3 *386:7 *386:3 4
4 *386:6 *386:7 0.88
5 *386:5 *386:6 4
6 *386:5 *386:4 0.3
7 *965:A *386:4 4
*END

*D_NET *387 0.00852208

*CONN
*I *966:Y O *C 538.8 451.5 *L 0 *D NAND2X1
*I *965:D I *C 512.4 454.5 *L 0.0332 *D AOI22X1

*CAP
1 *966:Y 0.00020796
2 *965:D 0.00028335
3 *387:2 0.000446
4 *387:3 0.000446
5 *387:4 0.00260672
6 *387:5 0.00260672
7 *387:6 0.00077368
8 *387:7 0.00077368
9 *387:8 0.00037797

*RES
1 *387:8 *966:Y 0.24
2 *387:7 *387:8 4
3 *387:7 *387:6 0.6
4 *387:4 *387:6 4
5 *387:5 *387:4 0.8
6 *387:2 *387:5 4
7 *387:3 *387:2 0.3
8 *965:D *387:3 4
*END

*D_NET *388 0.0286703

*CONN
*I *1013:Y O *C 481.2 394.5 *L 0 *D OAI21X1
*I *1012:A I *C 500.4 475.5 *L 0.0535 *D XNOR2X1
*I *689:A I *C 519.6 475.5 *L 0.0333 *D INVX2

*CAP
1 *1013:Y 0.00023916
2 *1012:A 0.00041594
3 *689:A 0.00020796
4 *388:3 0.00862122
5 *388:4 0.00842538
6 *388:5 0.00047919
7 *388:6 0.00156797
8 *388:7 0.00163712
9 *388:8 0.00047919
10 *388:9 0.00047919
11 *388:10 0.00257704
12 *388:11 0.00257704
13 *388:12 0.00058595
14 *388:13 0.00037797

*RES
1 *388:13 *689:A 0.24
2 *388:8 *388:13 4
3 *388:9 *388:8 0.3
4 *388:12 *1012:A 0.48
5 *388:10 *388:9 4
6 *388:5 *388:12 4
7 *388:11 *388:10 0.72
8 *388:3 *388:5 0.3
9 *388:3 *388:11 4
10 *388:4 *388:3 8.1
11 *388:6 *388:4 4
12 *388:7 *388:6 1.44
13 *388:7 *1013:Y 0.27
*END

*D_NET *389 0.0777382

*CONN
*I *1010:Y O *C 543.6 154.5 *L 0 *D OAI21X1
*I *1009:C I *C 546 508.5 *L 0.0216 *D OAI21X1
*I *969:A I *C 546 475.5 *L 0.0536 *D XOR2X1
*I *734:A I *C 550.8 454.5 *L 0.0333 *D INVX2

*CAP
1 *1010:Y 0.00028335
2 *1009:C 0.00028335
3 *969:A 0.00028335
4 *734:A 0.00028335
5 *389:4 0.00389585
6 *389:5 0.00367912
7 *389:6 0.0090383
8 *389:7 0.00908258
9 *389:8 0.00133979
10 *389:9 0.00324861
11 *389:10 0.00223645
12 *389:11 0.00329127
13 *389:12 0.00350556
14 *389:13 0.00109758
15 *389:14 0.00109758
16 *389:15 0.00038673
17 *389:16 0.0115568
18 *389:17 0.00157414
19 *389:18 0.00157414
20 *389:19 0.0113376
21 *389:20 0.00120985
22 *389:21 0.00120985
23 *389:22 0.0003843
24 *389:23 0.000765
25 *389:24 0.00080928
26 *389:6 *429:3 0.00012381
27 *389:7 *429:4 0.00012381
28 *389:8 *429:7 0.00038367
29 *389:9 *429:8 0.00038367
30 *389:9 *429:7 0.00069061
31 *389:10 *429:8 0.00069061
32 *389:11 *429:7 2.331e-05
33 *389:12 *429:8 2.331e-05
34 *389:11 *429:10 0.00084408
35 *389:12 *429:9 0.00084408
36 *389:11 *429:9 7.673e-05
37 *389:12 *429:6 7.673e-05

*RES
1 *389:23 *969:A 4
2 *389:22 *1009:C 4
3 *389:24 *389:23 0.6
4 *389:22 *389:11 0.24
5 *389:24 *389:12 0.24
6 *389:12 *389:11 3.9
7 *389:12 *389:8 0.24
8 *389:9 *734:A 4
9 *389:9 *389:8 1.5
10 *389:10 *389:9 2.7
11 *389:20 *389:10 4
12 *389:20 *389:21 1.2
13 *389:6 *389:21 4
14 *389:7 *389:6 9.9
15 *389:7 *389:19 0.24
16 *389:16 *389:19 12.6
17 *389:4 *389:16 0.48
18 *389:5 *389:4 3.9
19 *389:15 *389:5 0.24
20 *389:18 *389:15 4
21 *389:17 *389:18 0.48
22 *389:14 *389:17 4
23 *389:13 *389:14 0.9
24 *1010:Y *389:13 4
*END

*D_NET *390 0.011762

*CONN
*I *969:Y O *C 538.8 478.5 *L 0 *D XOR2X1
*I *968:A I *C 512.4 514.5 *L 0.0536 *D XOR2X1

*CAP
1 *969:Y 0.00124782
2 *968:A 0.00040294
3 *390:2 0.00057295
4 *390:3 0.00314997
5 *390:4 0.00362284
6 *390:5 0.00091028
7 *390:6 0.00043741
8 *390:7 0.00141783

*RES
1 *390:7 *969:Y 1.44
2 *390:6 *390:7 4
3 *390:6 *390:5 0.3
4 *390:4 *390:5 0.72
5 *390:4 *390:3 3.3
6 *968:A *390:2 0.465
7 *390:2 *390:3 4
*END

*D_NET *391 0.0207957

*CONN
*I *1012:Y O *C 510 478.5 *L 0 *D XNOR2X1
*I *1009:A I *C 553.2 514.5 *L 0.0323 *D OAI21X1
*I *968:B I *C 498 514.5 *L 0.0637 *D XOR2X1
*I *688:A I *C 519.6 514.5 *L 0.0333 *D INVX2

*CAP
1 *1012:Y 0.00028335
2 *1009:A 0.00028335
3 *968:B 0.00028335
4 *688:A 0.00028335
5 *391:4 0.00072427
6 *391:5 0.00076855
7 *391:6 0.00267638
8 *391:7 0.0026321
9 *391:8 0.0004675
10 *391:9 0.0004675
11 *391:10 0.00313094
12 *391:11 0.00042997
13 *391:12 0.00042997
14 *391:13 0.00197213
15 *391:14 0.00042997
16 *391:15 0.00042997
17 *391:16 0.00150178
18 *391:17 0.00360129

*RES
1 *391:7 *1012:Y 4
2 *391:14 *968:B 4
3 *391:7 *391:6 2.7
4 *391:15 *391:14 0.3
5 *391:6 *391:5 0.24
6 *391:16 *391:15 4
7 *391:5 *391:4 0.6
8 *391:8 *688:A 4
9 *391:16 *391:13 0.48
10 *391:13 *391:4 4
11 *391:9 *391:8 0.3
12 *391:12 *1009:A 4
13 *391:13 *391:17 0.24
14 *391:17 *391:9 4
15 *391:11 *391:12 0.3
16 *391:17 *391:10 1.12
17 *391:10 *391:11 4
*END

*D_NET *392 0.0160344

*CONN
*I *974:Y O *C 469.2 478.5 *L 0 *D XOR2X1
*I *970:A I *C 464.4 415.5 *L 0.0323 *D OAI21X1

*CAP
1 *974:Y 0.00020796
2 *970:A 0.00022313
3 *392:2 0.0066941
4 *392:3 0.00643552
5 *392:4 0.00039314
6 *392:5 0.00037797
7 *392:6 0.00072199
8 *392:7 0.00098057

*RES
1 *392:5 *974:Y 0.24
2 *392:6 *392:5 4
3 *392:6 *392:7 0.6
4 *392:2 *392:7 0.48
5 *392:3 *392:2 6.9
6 *392:4 *392:3 4
7 *392:4 *970:A 0.225
*END

*D_NET *393 0.00510668

*CONN
*I *971:Y O *C 478.8 418.5 *L 0 *D AOI22X1
*I *970:C I *C 471.6 421.5 *L 0.0216 *D OAI21X1

*CAP
1 *971:Y 0.00028335
2 *970:C 0.00028335
3 *393:2 0.00047297
4 *393:3 0.00047297
5 *393:4 0.00078839
6 *393:5 0.00078839
7 *393:6 0.00100863
8 *393:7 0.00100863

*RES
1 *393:5 *971:Y 4
2 *393:5 *393:4 0.6
3 *393:7 *393:4 4
4 *393:6 *393:7 0.24
5 *393:2 *393:6 4
6 *393:3 *393:2 0.3
7 *970:C *393:3 4
*END

*D_NET *394 0.00788294

*CONN
*I *973:Y O *C 471.6 454.5 *L 0 *D NOR2X1
*I *971:A I *C 474 418.5 *L 0.0323 *D AOI22X1

*CAP
1 *973:Y 0.00020796
2 *971:A 0.00028335
3 *394:2 0.00350683
4 *394:3 0.00350683
5 *394:4 0.00037797

*RES
1 *394:3 *971:A 4
2 *394:3 *394:2 3.6
3 *394:4 *394:2 4
4 *973:Y *394:4 0.24
*END

*D_NET *395 0.00785056

*CONN
*I *972:Y O *C 478.8 451.5 *L 0 *D NAND2X1
*I *971:D I *C 481.2 415.5 *L 0.0332 *D AOI22X1

*CAP
1 *972:Y 0.00020796
2 *971:D 0.00028335
3 *395:2 0.00349064
4 *395:3 0.00349064
5 *395:4 0.00037797

*RES
1 *395:3 *971:D 4
2 *395:3 *395:2 3.6
3 *395:4 *395:2 4
4 *972:Y *395:4 0.24
*END

*D_NET *396 0.0065048

*CONN
*I *1006:Y O *C 438 475.5 *L 0 *D OAI21X1
*I *1005:A I *C 445.2 475.5 *L 0.0535 *D XNOR2X1
*I *691:A I *C 450 454.5 *L 0.0333 *D INVX2

*CAP
1 *1006:Y 0.00059792
2 *1005:A 0.00088127
3 *691:A 0.00038994
4 *396:3 0.00203786
5 *396:4 0.00203786
6 *396:5 0.00055995

*RES
1 *396:5 *691:A 0.45
2 *396:4 *396:5 4
3 *396:4 *396:3 2.1
4 *1005:A *396:3 4
5 *1006:Y *1005:A 0.69
*END

*D_NET *397 0.0718426

*CONN
*I *1003:Y O *C 507.6 214.5 *L 0 *D OAI21X1
*I *1002:C I *C 478.8 508.5 *L 0.0216 *D OAI21X1
*I *975:A I *C 493.2 475.5 *L 0.0536 *D XOR2X1
*I *735:A I *C 486 454.5 *L 0.0333 *D INVX2

*CAP
1 *1003:Y 0.000238
2 *1002:C 0.00028335
3 *975:A 0.00028335
4 *735:A 0.0006239
5 *397:4 0.00040801
6 *397:5 0.00365379
7 *397:6 0.00168031
8 *397:7 0.00481672
9 *397:8 0.00285635
10 *397:9 0.00259291
11 *397:10 0.00479443
12 *397:11 0.00457771
13 *397:12 0.01274
14 *397:13 0.0132201
15 *397:14 0.00288752
16 *397:15 0.00168349
17 *397:16 0.00168349
18 *397:17 0.00079391
19 *397:18 0.0004675
20 *397:19 0.0004675
21 *397:20 0.00127479
22 *397:21 0.00127479
23 *397:22 0.0003843
24 *397:12 *377:4 0.00076735
25 *397:13 *377:3 0.00076735
26 *397:12 *128:3 0.00145796
27 *397:13 *128:4 0.00145796
28 *397:12 *128:4 0.00099755
29 *397:13 *128:6 0.00099755
30 *397:8 *149:2 1.126e-05
31 *397:9 *149:3 1.126e-05
32 *397:10 *149:2 0.00084408
33 *397:11 *149:3 0.00084408

*RES
1 *397:18 *1002:C 4
2 *397:19 *397:18 0.3
3 *397:20 *397:19 4
4 *397:20 *397:21 0.4
5 *397:22 *397:21 4
6 *397:22 *397:14 0.24
7 *735:A *397:17 0.72
8 *397:7 *975:A 4
9 *397:7 *397:14 3
10 *397:5 *397:17 4
11 *397:5 *397:7 2.1
12 *397:6 *397:5 1.5
13 *397:16 *397:6 4
14 *397:16 *397:15 0.48
15 *397:12 *397:15 4
16 *397:13 *397:12 14.7
17 *397:10 *397:13 0.72
18 *397:11 *397:10 5.1
19 *397:11 *397:8 0.48
20 *397:9 *397:8 2.7
21 *397:4 *1003:Y 0.24
22 *397:4 *397:9 4
*END

*D_NET *398 0.00211608

*CONN
*I *975:Y O *C 486 478.5 *L 0 *D XOR2X1
*I *974:A I *C 476.4 475.5 *L 0.0536 *D XOR2X1

*CAP
1 *975:Y 0.00081888
2 *974:A 0.00023916
3 *398:2 0.00105804

*RES
1 *398:2 *975:Y 0.945
2 *974:A *398:2 0.27
*END

*D_NET *399 0.0106813

*CONN
*I *1005:Y O *C 454.8 478.5 *L 0 *D XNOR2X1
*I *1002:A I *C 471.6 514.5 *L 0.0323 *D OAI21X1
*I *974:B I *C 462 475.5 *L 0.0637 *D XOR2X1
*I *690:A I *C 462 514.5 *L 0.0333 *D INVX2

*CAP
1 *1005:Y 0.00036394
2 *1002:A 0.00083188
3 *974:B 0.00023916
4 *690:A 0.00100189
5 *399:4 0.00337009
6 *399:5 0.00341437
7 *399:6 0.0003843
8 *399:7 0.00062857
9 *399:8 0.00044712

*RES
1 *974:B *399:8 0.27
2 *1005:Y *399:7 0.42
3 *399:7 *399:8 0.24
4 *399:4 *399:7 4
5 *399:4 *399:5 3.6
6 *399:5 *399:6 0.24
7 *690:A *399:6 4
8 *690:A *1002:A 0.96
*END

*D_NET *400 0.0197454

*CONN
*I *981:Y O *C 402 478.5 *L 0 *D XOR2X1
*I *977:A I *C 406.8 415.5 *L 0.0323 *D OAI21X1

*CAP
1 *981:Y 0.00020796
2 *977:A 0.0006313
3 *400:2 0.00370224
4 *400:3 0.00396082
5 *400:4 0.00044713
6 *400:5 0.00044713
7 *400:6 0.00284611
8 *400:7 0.00258753
9 *400:8 0.00067096
10 *400:9 0.00020967
11 *400:10 0.00103157
12 *400:11 0.00105656
13 *400:12 0.00079674
14 *400:13 0.00037797
15 *400:14 0.00077175

*RES
1 *400:8 *977:A 0.665
2 *400:9 *400:8 0.04
3 *400:7 *400:9 4
4 *400:7 *400:6 2.4
5 *400:3 *400:6 0.48
6 *400:3 *400:2 3.6
7 *400:12 *400:2 4
8 *400:11 *400:10 0.146667
9 *400:12 *400:11 0.173333
10 *400:10 *400:14 0.2
11 *400:4 *400:14 4
12 *400:5 *400:4 0.3
13 *981:Y *400:13 0.24
14 *400:13 *400:5 4
*END

*D_NET *401 0.00664044

*CONN
*I *978:Y O *C 414 451.5 *L 0 *D AOI22X1
*I *977:C I *C 414 421.5 *L 0.0216 *D OAI21X1

*CAP
1 *978:Y 0.00028335
2 *977:C 0.00028335
3 *401:2 0.00303687
4 *401:3 0.00303687

*RES
1 *401:3 *978:Y 4
2 *401:2 *977:C 4
3 *401:2 *401:3 3
*END

*D_NET *402 0.00688522

*CONN
*I *980:Y O *C 397.2 454.5 *L 0 *D NOR2X1
*I *978:A I *C 409.2 451.5 *L 0.0323 *D AOI22X1

*CAP
1 *980:Y 0.00020796
2 *978:A 0.00018198
3 *402:2 0.00037797
4 *402:3 0.00132072
5 *402:4 0.00179359
6 *402:5 0.00156194
7 *402:6 0.00108907
8 *402:7 0.00035199

*RES
1 *402:7 *978:A 0.21
2 *402:6 *402:7 4
3 *402:5 *402:6 0.9
4 *402:4 *402:5 0.72
5 *402:4 *402:3 1.2
6 *402:2 *402:3 4
7 *980:Y *402:2 0.24
*END

*D_NET *403 0.00560222

*CONN
*I *979:Y O *C 404.4 451.5 *L 0 *D NAND2X1
*I *978:D I *C 416.4 454.5 *L 0.0332 *D AOI22X1

*CAP
1 *979:Y 0.00028335
2 *978:D 0.00028335
3 *403:2 0.00075631
4 *403:3 0.00075631
5 *403:4 0.00128848
6 *403:5 0.00128848
7 *403:6 0.00047297
8 *403:7 0.00047297

*RES
1 *403:7 *978:D 4
2 *403:7 *403:6 0.3
3 *403:4 *403:6 4
4 *403:5 *403:4 0.4
5 *403:2 *403:5 4
6 *403:3 *979:Y 4
7 *403:3 *403:2 0.6
*END

*D_NET *404 0.00649218

*CONN
*I *1050:Y O *C 346.8 475.5 *L 0 *D OAI21X1
*I *1043:A I *C 358.8 475.5 *L 0.0535 *D XNOR2X1
*I *675:A I *C 356.4 454.5 *L 0.0333 *D INVX2

*CAP
1 *1050:Y 0.00082764
2 *1043:A 0.00019498
3 *675:A 0.00028335
4 *404:3 0.00205346
5 *404:4 0.00205346
6 *404:5 0.00107929

*RES
1 *404:4 *675:A 4
2 *404:4 *404:3 2.1
3 *404:5 *1043:A 0.225
4 *404:5 *404:3 4
5 *1050:Y *404:5 0.945
*END

*D_NET *405 0.00849686

*CONN
*I *982:Y O *C 402 511.5 *L 0 *D XOR2X1
*I *981:A I *C 394.8 475.5 *L 0.0536 *D XOR2X1

*CAP
1 *982:Y 0.0001733
2 *981:A 0.00023916
3 *405:2 0.00321536
4 *405:3 0.00321536
5 *405:4 0.00040917
6 *405:5 0.00062061
7 *405:6 0.0006239

*RES
1 *405:6 *982:Y 0.2
2 *405:5 *405:6 0.52
3 *405:2 *405:5 4
4 *405:3 *405:2 3.3
5 *981:A *405:4 0.27
6 *405:4 *405:3 4
*END

*D_NET *406 0.0264264

*CONN
*I *1043:Y O *C 368.4 478.5 *L 0 *D XNOR2X1
*I *1000:A I *C 411.6 514.5 *L 0.0323 *D OAI21X1
*I *981:B I *C 409.2 475.5 *L 0.0637 *D XOR2X1
*I *673:A I *C 368.4 514.5 *L 0.0333 *D INVX2

*CAP
1 *1043:Y 0.00028335
2 *1000:A 0.00028335
3 *981:B 0.00028335
4 *673:A 0.00028335
5 *406:4 0.00380198
6 *406:5 0.0037577
7 *406:6 0.00401634
8 *406:7 0.00322836
9 *406:8 0.00069427
10 *406:9 0.00374383
11 *406:10 0.00333291
12 *406:11 0.00123684
13 *406:12 0.00068993
14 *406:13 0.00079088

*RES
1 *406:10 *1043:Y 4
2 *406:10 *406:9 3.6
3 *406:9 *673:A 4
4 *406:9 *406:8 0.6
5 *406:7 *406:8 4
6 *406:6 *406:11 0.386667
7 *406:7 *406:6 1.05333
8 *406:12 *406:11 4
9 *406:13 *1000:A 4
10 *406:13 *406:12 0.6
11 *406:4 *406:13 0.24
12 *406:5 *981:B 4
13 *406:5 *406:4 3.9
*END

*D_NET *407 0.0099443

*CONN
*I *1001:Y O *C 450 514.5 *L 0 *D OAI21X1
*I *1000:C I *C 418.8 508.5 *L 0.0216 *D OAI21X1
*I *982:A I *C 409.2 514.5 *L 0.0536 *D XOR2X1

*CAP
1 *1001:Y 0.00246964
2 *1000:C 0.00052251
3 *982:A 0.00023916
4 *407:3 0.00044712
5 *407:4 0.0004737
6 *407:5 0.00273538
7 *407:6 0.00044712
8 *407:7 0.00037797
9 *407:8 0.00047297
10 *407:9 0.00094584
11 *407:10 0.00081289

*RES
1 *407:6 *982:A 0.27
2 *407:6 *407:7 0.24
3 *407:8 *407:7 4
4 *407:9 *407:8 0.3
5 *407:9 *407:10 0.72
6 *1000:C *407:10 4
7 *407:5 *1001:Y 2.85
8 *407:4 *407:5 0.3
9 *1000:C *407:3 0.27
10 *407:3 *407:4 0.24
*END

*D_NET *408 0.00743238

*CONN
*I *984:Y O *C 402 391.5 *L 0 *D AOI22X1
*I *983:C I *C 416.4 388.5 *L 0.0216 *D OAI21X1

*CAP
1 *984:Y 0.00028335
2 *983:C 0.00022313
3 *408:2 0.0004283
4 *408:3 0.0004283
5 *408:4 0.00039314
6 *408:5 0.00147898
7 *408:6 0.00147898
8 *408:7 0.00076082
9 *408:8 0.00076082
10 *408:5 *166:28 0.00049824
11 *408:6 *166:29 0.00049824
12 *408:2 *166:9 7.673e-05
13 *408:3 *166:10 7.673e-05
14 *408:8 *166:30 2.331e-05
15 *408:7 *166:31 2.331e-05

*RES
1 *983:C *408:4 0.225
2 *408:2 *408:4 4
3 *408:3 *408:2 0.3
4 *408:5 *408:3 4
5 *408:6 *408:5 0.56
6 *408:7 *408:6 4
7 *408:7 *408:8 0.6
8 *984:Y *408:8 4
*END

*D_NET *409 0.00724222

*CONN
*I *987:Y O *C 387.6 415.5 *L 0 *D NOR2X1
*I *984:A I *C 397.2 391.5 *L 0.0323 *D AOI22X1

*CAP
1 *987:Y 0.00028335
2 *984:A 0.00023916
3 *409:2 0.00100189
4 *409:3 0.00107104
5 *409:4 0.00170952
6 *409:5 0.00170952
7 *409:5 *203:3 0.00015347
8 *409:4 *203:4 0.00015347
9 *409:5 *203:5 7.673e-05
10 *409:4 *203:6 7.673e-05
11 *409:5 *203:6 0.00038367
12 *409:4 *203:7 0.00038367

*RES
1 *984:A *409:3 0.27
2 *409:2 *409:3 0.96
3 *409:4 *409:2 4
4 *409:4 *409:5 2.1
5 *987:Y *409:5 4
*END

*D_NET *410 0.00767932

*CONN
*I *985:Y O *C 394.8 418.5 *L 0 *D NAND2X1
*I *984:D I *C 404.4 394.5 *L 0.0332 *D AOI22X1

*CAP
1 *985:Y 0.0004556
2 *984:D 0.00028335
3 *410:2 0.00089193
4 *410:3 0.00060634
5 *410:4 0.00210717
6 *410:5 0.00210717
7 *410:5 *371:3 0.00061388
8 *410:4 *371:4 0.00061388

*RES
1 *410:4 *984:D 4
2 *410:4 *410:5 2.4
3 *410:3 *410:5 4
4 *410:2 *410:3 0.44
5 *985:Y *410:2 0.52
*END

*D_NET *411 0.0148694

*CONN
*I *994:Y O *C 339.6 454.5 *L 0 *D OAI21X1
*I *993:B I *C 361.2 454.5 *L 0.0637 *D XOR2X1
*I *692:A I *C 366 415.5 *L 0.0333 *D INVX2

*CAP
1 *994:Y 0.00019498
2 *993:B 0.00028335
3 *692:A 0.000476
4 *411:3 0.00379493
5 *411:4 0.00363662
6 *411:5 0.00044166
7 *411:6 0.00036499
8 *411:7 0.00064601
9 *411:8 0.00047919
10 *411:9 0.00047919
11 *411:10 0.00203626
12 *411:11 0.00203626

*RES
1 *411:7 *692:A 0.48
2 *411:4 *411:7 4
3 *411:4 *411:3 3.9
4 *411:3 *993:B 4
5 *411:3 *411:5 0.3
6 *411:11 *411:5 4
7 *411:10 *411:11 0.64
8 *411:9 *411:10 4
9 *411:8 *411:9 0.3
10 *411:6 *411:8 4
11 *994:Y *411:6 0.225
*END

*D_NET *412 0.0796889

*CONN
*I *996:Y O *C 406.8 154.5 *L 0 *D OAI21X1
*I *993:A I *C 375.6 454.5 *L 0.0536 *D XOR2X1
*I *736:A I *C 382.8 394.5 *L 0.0333 *D INVX2

*CAP
1 *996:Y 0.00028335
2 *993:A 0.00028335
3 *736:A 0.00020796
4 *412:3 0.00545241
5 *412:4 0.00540813
6 *412:5 0.00447177
7 *412:6 0.00442506
8 *412:7 0.00100531
9 *412:8 0.00105202
10 *412:9 0.00181934
11 *412:10 0.00186362
12 *412:11 0.00251851
13 *412:12 0.00251851
14 *412:13 0.00679819
15 *412:14 0.00669226
16 *412:15 0.00278231
17 *412:16 0.00289067
18 *412:17 0.00161959
19 *412:18 0.00161959
20 *412:19 0.00203193
21 *412:20 0.00171259
22 *412:21 0.00269523
23 *412:22 0.00269523
24 *412:23 0.00270033
25 *412:24 0.00505718
26 *412:25 0.00280571
27 *412:26 0.00038673
28 *412:27 0.00104009
29 *412:28 0.00104009
30 *412:29 0.0008631
31 *412:30 0.00118244
32 *412:31 0.0004737
33 *412:32 0.00043575
34 *412:33 0.00047259
35 *412:34 0.0003843

*RES
1 *412:34 *993:A 4
2 *412:34 *412:3 0.24
3 *412:4 *412:3 5.7
4 *412:32 *412:4 4
5 *412:31 *412:32 0.3
6 *412:31 *412:33 0.24
7 *412:33 *736:A 0.24
8 *412:21 *412:33 4
9 *412:22 *412:21 2.4
10 *412:25 *412:22 4
11 *412:24 *412:23 0.626667
12 *412:25 *412:24 0.653333
13 *412:9 *412:23 4
14 *412:10 *412:9 1.5
15 *412:13 *412:10 0.24
16 *412:14 *412:13 6.3
17 *412:14 *412:11 0.12
18 *412:12 *412:11 2.4
19 *412:15 *412:12 0.12
20 *412:16 *412:15 3
21 *412:26 *412:16 0.24
22 *412:28 *412:26 4
23 *412:27 *412:28 0.3
24 *412:7 *412:27 4
25 *412:8 *412:7 0.9
26 *412:8 *412:5 0.24
27 *412:6 *412:5 4.5
28 *412:29 *412:6 4
29 *412:29 *412:30 0.24
30 *412:19 *412:30 0.2
31 *412:20 *412:19 0.56
32 *412:17 *412:20 4
33 *412:18 *412:17 1.5
34 *996:Y *412:18 4
*END

*D_NET *413 0.0138705

*CONN
*I *1046:Y O *C 370.8 328.5 *L 0 *D NAND3X1
*I *1044:B I *C 370.8 271.5 *L 0.033 *D OAI21X1
*I *989:A I *C 366 292.5 *L 0.0377 *D NOR3X1

*CAP
1 *1046:Y 0.00028335
2 *1044:B 0.00038994
3 *989:A 0.00028335
4 *413:3 0.00074667
5 *413:4 0.00100525
6 *413:5 0.00055995
7 *413:6 0.00233265
8 *413:7 0.00503001
9 *413:8 0.00323929

*RES
1 *413:3 *1046:Y 4
2 *413:5 *1044:B 0.45
3 *413:4 *413:3 0.6
4 *413:6 *413:5 4
5 *413:8 *413:4 0.48
6 *413:6 *413:7 2.1
7 *413:7 *413:8 3
8 *989:A *413:7 4
*END

*D_NET *414 0.00596554

*CONN
*I *991:Y O *C 366 355.5 *L 0 *D NOR2X1
*I *990:C I *C 385.2 364.5 *L 0.0272 *D NAND3X1

*CAP
1 *991:Y 0.00020796
2 *990:C 0.00081888
3 *414:2 0.00114304
4 *414:3 0.00161591
5 *414:4 0.00037797
6 *414:5 0.00098889
7 *414:6 0.00081289

*RES
1 *414:5 *990:C 0.945
2 *414:2 *414:5 4
3 *414:3 *414:2 0.9
4 *414:6 *414:3 0.72
5 *414:4 *414:6 4
6 *991:Y *414:4 0.24
*END

*D_NET *415 0.00977352

*CONN
*I *998:Y O *C 382.8 478.5 *L 0 *D XOR2X1
*I *992:A I *C 392.4 454.5 *L 0.0536 *D XOR2X1

*CAP
1 *998:Y 0.00028335
2 *992:A 0.00028335
3 *415:2 0.00288501
4 *415:3 0.00288501
5 *415:4 0.00043741
6 *415:5 0.00043741
7 *415:6 0.00128099
8 *415:7 0.00128099

*RES
1 *415:3 *992:A 4
2 *415:3 *415:2 2.7
3 *415:7 *415:2 4
4 *415:6 *415:7 0.32
5 *415:4 *415:6 4
6 *415:5 *998:Y 4
7 *415:5 *415:4 0.3
*END

*D_NET *416 0.00541282

*CONN
*I *993:Y O *C 368.4 451.5 *L 0 *D XOR2X1
*I *992:B I *C 378 454.5 *L 0.0637 *D XOR2X1

*CAP
1 *993:Y 0.00028335
2 *992:B 0.00023916
3 *416:2 0.00037797
4 *416:3 0.00044712
5 *416:4 0.00125274
6 *416:5 0.00077987
7 *416:6 0.00125274
8 *416:7 0.00077987

*RES
1 *416:3 *992:B 0.27
2 *416:2 *416:3 0.24
3 *416:7 *416:2 4
4 *416:6 *416:7 0.6
5 *416:4 *416:6 0.72
6 *416:4 *416:5 0.6
7 *993:Y *416:5 4
*END

*D_NET *417 0.00730508

*CONN
*I *995:Y O *C 334.8 418.5 *L 0 *D AOI22X1
*I *994:C I *C 339.6 448.5 *L 0.0216 *D OAI21X1

*CAP
1 *995:Y 0.00028335
2 *994:C 0.00028335
3 *417:2 0.00319918
4 *417:3 0.0029406
5 *417:4 0.0005986

*RES
1 *417:4 *994:C 4
2 *417:2 *417:4 0.48
3 *417:3 *417:2 3
4 *995:Y *417:3 4
*END

*D_NET *418 0.067756

*CONN
*I *1053:Y O *C 325.2 355.5 *L 0 *D NOR2X1
*I *1051:B I *C 349.2 415.5 *L 0.0325 *D AOI22X1
*I *1040:B I *C 459.6 334.5 *L 0.0325 *D AOI22X1
*I *1030:B I *C 464.4 328.5 *L 0.0216 *D NAND2X1
*I *1021:B I *C 462 355.5 *L 0.0325 *D AOI22X1
*I *1014:B I *C 454.8 415.5 *L 0.0325 *D AOI22X1
*I *1007:B I *C 438 415.5 *L 0.0325 *D AOI22X1
*I *995:B I *C 337.2 415.5 *L 0.0325 *D AOI22X1

*CAP
1 *1053:Y 0.00044597
2 *1051:B 0.00028335
3 *1040:B 0.00020796
4 *1030:B 0.00028335
5 *1021:B 0.00028335
6 *1014:B 0.00053795
7 *1007:B 0.00028335
8 *995:B 0.00041594
9 *418:8 0.00132996
10 *418:9 0.00142569
11 *418:10 0.00071171
12 *418:11 0.00647151
13 *418:12 0.00569371
14 *418:13 0.00928765
15 *418:14 0.00473908
16 *418:15 0.00047919
17 *418:16 0.00064297
18 *418:17 0.00241514
19 *418:18 0.0008585
20 *418:19 0.00459607
21 *418:20 0.00615271
22 *418:21 0.00047494
23 *418:22 0.00047494
24 *418:23 0.00042579
25 *418:24 0.00047007
26 *418:25 0.00042461
27 *418:26 0.00044713
28 *418:27 0.00047494
29 *418:28 0.00499743
30 *418:29 0.00243695
31 *418:30 0.00243695
32 *418:31 0.00037797
33 *418:32 0.0003843
34 *418:33 0.00058595
35 *418:34 0.00112457
36 *418:35 0.00043741
37 *418:36 0.0003843
38 *418:19 0.00145796
39 *418:20 0.00145796
40 *418:20 0.00038367
41 *418:17 0.00038367
42 *418:23 2.331e-05
43 *418:24 2.331e-05
44 *418:25 6.139e-05
45 *1014:B 6.139e-05

*RES
1 *1053:Y *418:10 0.48
2 *418:9 *418:10 0.3
3 *418:9 *418:8 1.2
4 *995:B *418:33 0.48
5 *418:12 *418:8 4
6 *418:27 *418:33 4
7 *418:12 *418:11 6
8 *418:11 *418:27 0.3
9 *418:35 *1051:B 4
10 *418:11 *418:34 0.72
11 *418:34 *418:35 0.3
12 *418:34 *418:36 0.24
13 *418:14 *418:36 4
14 *418:13 *418:28 1.26667
15 *418:14 *418:13 1.61333
16 *418:26 *418:28 4
17 *418:26 *418:16 0.3
18 *418:16 *1007:B 4
19 *418:16 *418:15 0.3
20 *418:30 *418:15 4
21 *418:30 *418:29 0.56
22 *418:21 *418:29 4
23 *418:22 *418:21 0.3
24 *1014:B *418:22 4
25 *1014:B *418:25 0.42
26 *418:23 *418:25 4
27 *418:24 *418:23 0.3
28 *418:32 *1030:B 4
29 *418:24 *418:19 0.24
30 *418:18 *418:32 0.24
31 *418:20 *1021:B 4
32 *418:20 *418:19 5.7
33 *418:18 *418:17 0.6
34 *418:17 *418:20 2.1
35 *418:31 *418:17 4
36 *1040:B *418:31 0.24
*END

*D_NET *419 0.0769229

*CONN
*I *660:A I *C 442.8 211.5 *L 0.0161 *D BUFX2
*I *1059:Y O *C 298.8 418.5 *L 0 *D NAND2X1

*CAP
1 *660:A 0.00028335
2 *1059:Y 0.00028335
3 *419:2 0.00094984
4 *419:3 0.00094984
5 *419:4 0.0059926
6 *419:5 0.00592974
7 *419:6 0.00346953
8 *419:7 0.0035791
9 *419:8 0.00460237
10 *419:9 0.00455566
11 *419:10 0.00654918
12 *419:11 0.00654918
13 *419:12 0.00263204
14 *419:13 0.00263204
15 *419:14 0.00351516
16 *419:15 0.00351516
17 *419:16 0.00254519
18 *419:17 0.00327444
19 *419:18 0.00117811
20 *419:16 *37:14 0.00127883
21 *419:17 *37:13 0.00127883
22 *419:17 *37:13 0.0008138
23 *419:18 *37:5 0.0008138
24 *419:16 *324:49 0.00177707
25 *419:17 *324:37 0.00177707
26 *419:17 *324:37 0.0008138
27 *419:18 *324:38 0.0008138
28 *419:8 *324:13 7.673e-05
29 *419:9 *324:14 7.673e-05
30 *419:8 *324:14 0.00061388
31 *419:9 *324:15 0.00061388
32 *419:10 *323:4 0.00159438
33 *419:11 *323:5 0.00159438

*RES
1 *419:12 *1059:Y 4
2 *419:13 *419:12 2.4
3 *419:11 *419:13 4
4 *419:11 *419:10 2.64
5 *419:4 *419:10 4
6 *419:5 *419:4 5.7
7 *419:5 *419:2 0.12
8 *419:3 *419:2 0.9
9 *419:6 *419:3 0.12
10 *419:7 *419:6 3.6
11 *419:7 *419:8 0.24
12 *419:9 *419:8 4.8
13 *419:18 *419:9 4
14 *419:17 *419:16 1.42667
15 *419:18 *419:17 0.653333
16 *419:14 *419:16 4
17 *419:15 *419:14 3.3
18 *660:A *419:15 4
*END

*D_NET *420 0.0013102

*CONN
*I *997:Y O *C 402 151.5 *L 0 *D NAND2X1
*I *996:C I *C 406.8 148.5 *L 0.0216 *D OAI21X1

*CAP
1 *997:Y 0.00041594
2 *996:C 0.00023916
3 *420:2 0.0006551

*RES
1 *996:C *420:2 0.27
2 *997:Y *420:2 0.48
*END

*D_NET *421 0.00851986

*CONN
*I *999:Y O *C 387.6 514.5 *L 0 *D OAI21X1
*I *998:A I *C 390 475.5 *L 0.0536 *D XOR2X1

*CAP
1 *999:Y 0.00020374
2 *998:A 0.00028335
3 *421:2 0.00037375
4 *421:3 0.00382951
5 *421:4 0.00382951

*RES
1 *421:4 *998:A 4
2 *421:4 *421:3 3.9
3 *421:2 *421:3 4
4 *999:Y *421:2 0.225
*END

*D_NET *422 0.00850456

*CONN
*I *1000:Y O *C 418.8 514.5 *L 0 *D OAI21X1
*I *999:C I *C 387.6 508.5 *L 0.0216 *D OAI21X1

*CAP
1 *1000:Y 0.00028335
2 *999:C 0.0004117
3 *422:2 0.00050503
4 *422:3 0.00050503
5 *422:4 0.00058171
6 *422:5 0.00088774
7 *422:6 0.00240525
8 *422:7 0.00196637
9 *422:8 0.00047919
10 *422:9 0.00047919

*RES
1 *422:9 *1000:Y 4
2 *422:8 *422:9 0.3
3 *422:7 *422:8 4
4 *422:6 *422:7 0.626667
5 *422:5 *422:6 0.253333
6 *422:2 *422:5 4
7 *422:3 *422:2 0.3
8 *999:C *422:4 0.465
9 *422:4 *422:3 4
*END

*D_NET *423 0.0870114

*CONN
*I *1057:Y O *C 426 154.5 *L 0 *D OAI21X1
*I *1000:B I *C 414 511.5 *L 0.033 *D OAI21X1
*I *729:A I *C 414 475.5 *L 0.0333 *D INVX2

*CAP
1 *1057:Y 0.00022313
2 *1000:B 0.00028335
3 *729:A 0.00019498
4 *423:3 0.00039314
5 *423:4 0.00337818
6 *423:5 0.00570629
7 *423:6 0.00529571
8 *423:7 0.005249
9 *423:8 0.0016583
10 *423:9 0.00170501
11 *423:10 0.0053491
12 *423:11 0.00528624
13 *423:12 0.00102201
14 *423:13 0.00102201
15 *423:14 0.00582588
16 *423:15 0.00588753
17 *423:16 0.00268322
18 *423:17 0.00268443
19 *423:18 0.0008631
20 *423:19 0.0008631
21 *423:20 0.00620061
22 *423:21 0.00620061
23 *423:22 0.00261146
24 *423:23 0.00125224
25 *423:24 0.00065569
26 *423:25 0.00146617
27 *423:26 0.00086962
28 *423:27 0.00061599
29 *423:28 0.00071172
30 *423:29 0.00095396
31 *423:30 0.00095396
32 *423:31 0.00045335
33 *423:32 0.00045335
34 *423:33 0.00046072
35 *423:10 *336:6 7.673e-05
36 *423:11 *336:7 7.673e-05
37 *423:16 *336:6 0.00076735
38 *423:17 *336:7 0.00076735
39 *423:16 *336:2 2.331e-05
40 *423:17 *336:3 2.331e-05
41 *423:14 *336:2 0.00184163
42 *423:15 *336:3 0.00184163
43 *423:6 *336:10 0.00016318
44 *423:7 *336:11 0.00016318
45 *423:6 *336:8 0.00027973
46 *423:7 *336:9 0.00027973
47 *423:8 *336:2 2.331e-05
48 *423:9 *336:3 2.331e-05
49 *423:10 *140:3 0.00061388
50 *423:11 *140:2 0.00061388

*RES
1 *423:32 *1000:B 4
2 *423:32 *423:31 0.3
3 *729:A *423:33 0.225
4 *423:30 *423:31 4
5 *423:33 *423:28 0.3
6 *423:30 *423:29 0.24
7 *423:28 *423:27 0.48
8 *423:4 *423:29 4
9 *423:5 *423:27 4
10 *423:5 *423:4 3.6
11 *423:22 *423:5 2.4
12 *423:26 *423:22 4
13 *423:26 *423:25 0.24
14 *423:23 *423:25 0.3
15 *423:24 *423:23 0.16
16 *423:20 *423:24 4
17 *423:21 *423:20 5.4
18 *423:19 *423:21 4
19 *423:19 *423:18 0.24
20 *423:10 *423:18 4
21 *423:11 *423:10 6
22 *423:16 *423:11 0.12
23 *423:17 *423:16 3.3
24 *423:14 *423:17 0.12
25 *423:15 *423:14 7.2
26 *423:12 *423:15 4
27 *423:13 *423:12 0.24
28 *423:8 *423:13 4
29 *423:9 *423:8 1.5
30 *423:9 *423:6 0.24
31 *423:7 *423:6 5.7
32 *423:3 *423:7 4
33 *423:3 *1057:Y 0.225
*END

*D_NET *424 0.00786926

*CONN
*I *1002:Y O *C 478.8 514.5 *L 0 *D OAI21X1
*I *1001:C I *C 450 508.5 *L 0.0216 *D OAI21X1

*CAP
1 *1002:Y 0.00028335
2 *1001:C 0.00028335
3 *424:2 0.00043544
4 *424:3 0.00043544
5 *424:4 0.00273665
6 *424:5 0.00273665
7 *424:6 0.00047919
8 *424:7 0.00047919

*RES
1 *424:7 *1002:Y 4
2 *424:6 *424:7 0.3
3 *424:5 *424:6 4
4 *424:4 *424:5 0.96
5 *424:2 *424:4 4
6 *424:3 *1001:C 4
7 *424:3 *424:2 0.3
*END

*D_NET *425 0.0137724

*CONN
*I *1008:Y O *C 524.4 514.5 *L 0 *D OAI21X1
*I *1002:B I *C 474 511.5 *L 0.033 *D OAI21X1
*I *677:A I *C 483.6 514.5 *L 0.0333 *D INVX2

*CAP
1 *1008:Y 0.00028335
2 *1002:B 0.00028335
3 *677:A 0.00028335
4 *425:3 0.00381663
5 *425:4 0.00465825
6 *425:5 0.00123437
7 *425:6 0.00070906
8 *425:7 0.00070906
9 *425:8 0.00042997
10 *425:9 0.00042997
11 *425:10 0.0004675
12 *425:11 0.0004675

*RES
1 *425:7 *1002:B 4
2 *425:11 *677:A 4
3 *425:7 *425:6 0.6
4 *425:11 *425:10 0.3
5 *425:5 *425:6 4
6 *425:9 *1008:Y 4
7 *425:4 *425:10 4
8 *425:5 *425:4 0.32
9 *425:9 *425:8 0.3
10 *425:4 *425:3 1.36
11 *425:3 *425:8 4
*END

*D_NET *426 0.00137026

*CONN
*I *1004:Y O *C 502.8 211.5 *L 0 *D NAND2X1
*I *1003:C I *C 507.6 208.5 *L 0.0216 *D OAI21X1

*CAP
1 *1004:Y 0.00044597
2 *1003:C 0.00023916
3 *426:2 0.00068513

*RES
1 *1003:C *426:2 0.27
2 *1004:Y *426:2 0.48
*END

*D_NET *427 0.0134948

*CONN
*I *1007:Y O *C 435.6 418.5 *L 0 *D AOI22X1
*I *1006:C I *C 438 481.5 *L 0.0216 *D OAI21X1

*CAP
1 *1007:Y 0.00028335
2 *1006:C 0.00028335
3 *427:2 0.00349033
4 *427:3 0.00344605
5 *427:4 0.0020972
6 *427:5 0.00205292
7 *427:2 0.00092081
8 *427:3 0.00092081

*RES
1 *427:5 *1006:C 4
2 *427:4 *427:5 2.1
3 *427:2 *427:4 0.24
4 *427:3 *427:2 4.2
5 *1007:Y *427:3 4
*END

*D_NET *428 0.0058223

*CONN
*I *1009:Y O *C 546 514.5 *L 0 *D OAI21X1
*I *1008:C I *C 524.4 508.5 *L 0.0216 *D OAI21X1

*CAP
1 *1009:Y 0.00112993
2 *1008:C 0.00028335
3 *428:2 0.00102718
4 *428:3 0.00138453
5 *428:4 0.00069737
6 *428:5 0.00129994

*RES
1 *428:5 *1009:Y 1.2
2 *428:4 *428:5 4
3 *428:3 *428:4 0.6
4 *428:2 *1008:C 4
5 *428:2 *428:3 0.96
*END

*D_NET *429 0.0250038

*CONN
*I *1015:Y O *C 553.2 394.5 *L 0 *D OAI21X1
*I *1009:B I *C 550.8 511.5 *L 0.033 *D OAI21X1
*I *679:A I *C 550.8 475.5 *L 0.0333 *D INVX2

*CAP
1 *1015:Y 0.00020374
2 *1009:B 0.00028335
3 *679:A 0.00028335
4 *429:3 0.00312137
5 *429:4 0.00307709
6 *429:5 0.00037375
7 *429:6 0.00043505
8 *429:7 0.00355332
9 *429:8 0.00355332
10 *429:9 0.00297125
11 *429:10 0.00286383
12 *429:3 *389:6 0.00012381
13 *429:4 *389:7 0.00012381
14 *429:7 *389:8 0.00038367
15 *429:8 *389:9 0.00038367
16 *429:7 *389:9 0.00069061
17 *429:8 *389:10 0.00069061
18 *429:7 *389:11 2.331e-05
19 *429:8 *389:12 2.331e-05
20 *429:10 *389:11 0.00084408
21 *429:9 *389:12 0.00084408
22 *429:9 *389:11 7.673e-05
23 *429:6 *389:12 7.673e-05

*RES
1 *1015:Y *429:5 0.225
2 *429:4 *429:5 4
3 *429:4 *429:3 3.3
4 *429:8 *429:3 0.24
5 *429:10 *1009:B 4
6 *429:8 *429:7 4.5
7 *429:9 *679:A 4
8 *429:9 *429:10 3.6
9 *429:6 *429:7 0.24
10 *429:6 *429:9 0.3
*END

*D_NET *430 0.0013102

*CONN
*I *1011:Y O *C 538.8 151.5 *L 0 *D NAND2X1
*I *1010:C I *C 543.6 148.5 *L 0.0216 *D OAI21X1

*CAP
1 *1011:Y 0.00041594
2 *1010:C 0.00023916
3 *430:2 0.0006551

*RES
1 *1010:C *430:2 0.27
2 *1011:Y *430:2 0.48
*END

*D_NET *431 0.0138475

*CONN
*I *1014:Y O *C 452.4 418.5 *L 0 *D AOI22X1
*I *1013:C I *C 481.2 388.5 *L 0.0216 *D OAI21X1

*CAP
1 *1014:Y 0.00028335
2 *1013:C 0.00028335
3 *431:2 0.00223942
4 *431:3 0.00223942
5 *431:4 0.00078838
6 *431:5 0.00078838
7 *431:6 0.00241679
8 *431:7 0.00241679
9 *431:2 *182:30 0.00029895
10 *431:3 *182:31 0.00029895
11 *431:2 *182:31 0.00089684
12 *431:3 *182:32 0.00089684

*RES
1 *431:5 *1013:C 4
2 *431:5 *431:4 0.6
3 *431:2 *431:4 4
4 *431:3 *431:2 0.96
5 *431:6 *431:3 4
6 *431:6 *431:7 2.4
7 *1014:Y *431:7 4
*END

*D_NET *432 0.00819446

*CONN
*I *1016:Y O *C 553.2 355.5 *L 0 *D OAI21X1
*I *1015:C I *C 553.2 388.5 *L 0.0216 *D OAI21X1

*CAP
1 *1016:Y 0.00019498
2 *1015:C 0.00020374
3 *432:2 0.00036499
4 *432:3 0.00268442
5 *432:4 0.00037375
6 *432:5 0.00268442
7 *432:5 *381:6 0.00069061
8 *432:3 *381:7 0.00069061
9 *432:5 *381:7 0.00015347
10 *432:3 *381:8 0.00015347

*RES
1 *1015:C *432:4 0.225
2 *432:5 *432:4 4
3 *432:3 *432:5 3.3
4 *1016:Y *432:2 0.225
5 *432:2 *432:3 4
*END

*D_NET *433 0.0228877

*CONN
*I *1022:Y O *C 553.2 274.5 *L 0 *D OAI21X1
*I *1016:B I *C 548.4 358.5 *L 0.033 *D OAI21X1
*I *681:A I *C 550.8 295.5 *L 0.0333 *D INVX2

*CAP
1 *1022:Y 0.00040294
2 *1016:B 0.00028335
3 *681:A 0.0006239
4 *433:3 0.00120091
5 *433:4 0.00120091
6 *433:5 0.00407491
7 *433:6 0.00555893
8 *433:7 0.00176737
9 *433:8 0.00128099
10 *433:9 0.00128099
11 *433:10 0.00057295
12 *433:11 0.00079391
13 *433:5 *381:15 0.00030694
14 *433:6 *381:4 0.00030694
15 *433:5 *381:4 0.00099755
16 *433:6 *381:5 0.00099755
17 *433:6 *381:4 0.00053714
18 *433:7 *381:5 0.00053714
19 *433:3 *381:15 1.126e-05
20 *433:4 *381:4 1.126e-05
21 *433:3 *381:7 6.993e-05
22 *433:4 *381:8 6.993e-05

*RES
1 *433:3 *1016:B 4
2 *433:4 *433:3 1.2
3 *433:9 *433:4 4
4 *433:9 *433:8 0.32
5 *681:A *433:11 0.72
6 *433:5 *433:8 4
7 *1022:Y *433:10 0.465
8 *433:6 *433:11 4
9 *433:6 *433:5 5.1
10 *433:7 *433:10 4
11 *433:7 *433:6 2.1
*END

*D_NET *434 0.00654812

*CONN
*I *1018:Y O *C 538.8 178.5 *L 0 *D NAND2X1
*I *1017:C I *C 538.8 208.5 *L 0.0216 *D OAI21X1

*CAP
1 *1018:Y 0.00028335
2 *1017:C 0.00028335
3 *434:2 0.00299071
4 *434:3 0.00299071

*RES
1 *434:3 *1017:C 4
2 *434:2 *1018:Y 4
3 *434:2 *434:3 3
*END

*D_NET *435 0.00808242

*CONN
*I *1021:Y O *C 459.6 358.5 *L 0 *D AOI22X1
*I *1020:C I *C 486 361.5 *L 0.0216 *D OAI21X1

*CAP
1 *1021:Y 0.00028335
2 *1020:C 0.00028335
3 *435:2 0.00050503
4 *435:3 0.00050503
5 *435:4 0.00187204
6 *435:5 0.00187204
7 *435:6 0.0003843
8 *435:7 0.0003843
9 *435:4 0.00099649
10 *435:5 0.00099649

*RES
1 *435:7 *1020:C 4
2 *435:6 *435:7 0.24
3 *435:4 *435:6 4
4 *435:5 *435:4 0.8
5 *435:2 *435:5 4
6 *435:3 *435:2 0.3
7 *1021:Y *435:3 4
*END

*D_NET *436 0.00789006

*CONN
*I *1023:Y O *C 550.8 235.5 *L 0 *D OAI21X1
*I *1022:C I *C 553.2 268.5 *L 0.0216 *D OAI21X1

*CAP
1 *1023:Y 0.00019498
2 *1022:C 0.00028335
3 *436:2 0.00267929
4 *436:3 0.00267929
5 *436:4 0.00036499
6 *436:2 *381:4 0.00084408
7 *436:3 *381:5 0.00084408

*RES
1 *436:2 *1022:C 4
2 *436:3 *436:2 3.3
3 *1023:Y *436:4 0.225
4 *436:4 *436:3 4
*END

*D_NET *437 0.013773

*CONN
*I *1041:Y O *C 550.8 175.5 *L 0 *D OAI21X1
*I *1023:B I *C 546 238.5 *L 0.033 *D OAI21X1
*I *730:A I *C 550.8 214.5 *L 0.0333 *D INVX2

*CAP
1 *1041:Y 0.00028335
2 *1023:B 0.00028335
3 *730:A 0.00028335
4 *437:3 0.00380665
5 *437:4 0.00060346
6 *437:5 0.00262651
7 *437:6 0.00588637

*RES
1 *437:4 *1023:B 4
2 *437:4 *437:5 0.48
3 *437:6 *730:A 4
4 *437:6 *437:5 2.4
5 *437:3 *1041:Y 4
6 *437:3 *437:6 3.9
*END

*D_NET *438 0.00502894

*CONN
*I *1025:Y O *C 409.2 175.5 *L 0 *D OAI21X1
*I *1024:C I *C 418.8 181.5 *L 0.0216 *D OAI21X1

*CAP
1 *1025:Y 0.00028335
2 *1024:C 0.00028335
3 *438:2 0.00113977
4 *438:3 0.00044288
5 *438:4 0.00178824
6 *438:5 0.00109135

*RES
1 *438:5 *1024:C 4
2 *438:4 *438:5 0.9
3 *438:2 *438:4 0.96
4 *438:2 *438:3 0.3
5 *1025:Y *438:3 4
*END

*D_NET *439 0.027469

*CONN
*I *1031:Y O *C 346.8 235.5 *L 0 *D OAI21X1
*I *1025:B I *C 404.4 178.5 *L 0.033 *D OAI21X1
*I *694:A I *C 402 214.5 *L 0.0333 *D INVX2

*CAP
1 *1031:Y 0.000238
2 *1025:B 0.00028335
3 *694:A 0.0001733
4 *439:3 0.00077367
5 *439:4 0.00077367
6 *439:5 0.00439722
7 *439:6 0.00439722
8 *439:7 0.00040801
9 *439:8 0.0004491
10 *439:9 0.0004491
11 *439:10 0.00132059
12 *439:11 0.00419934
13 *439:12 0.0031621
14 *439:13 0.0005693
15 *439:14 0.00069533
16 *439:15 0.00057489
17 *439:16 0.00062061
18 *439:17 0.0006239
19 *439:13 *352:9 8.304e-05
20 *439:14 *352:10 8.304e-05
21 *439:10 *352:14 0.00038367
22 *439:11 *352:6 0.00038367
23 *439:11 *352:14 7.673e-05
24 *439:12 *352:6 7.673e-05
25 *439:11 *352:6 0.00092081
26 *439:12 *352:4 0.00092081
27 *439:14 *352:10 0.00021591
28 *439:15 *352:11 0.00021591

*RES
1 *1031:Y *439:7 0.24
2 *439:3 *439:7 4
3 *439:4 *439:3 0.6
4 *439:6 *439:4 4
5 *439:8 *1025:B 4
6 *439:6 *439:5 1.52
7 *439:9 *439:8 0.3
8 *439:10 *439:5 4
9 *439:17 *694:A 0.2
10 *439:16 *439:17 0.52
11 *439:13 *439:9 4
12 *439:11 *439:10 1.5
13 *439:11 *439:16 4
14 *439:14 *439:13 0.146667
15 *439:15 *439:14 0.173333
16 *439:12 *439:11 3.9
17 *439:12 *439:15 4
*END

*D_NET *440 0.00532768

*CONN
*I *1027:Y O *C 438 211.5 *L 0 *D NAND2X1
*I *1026:C I *C 450 208.5 *L 0.0216 *D OAI21X1

*CAP
1 *1027:Y 0.00028335
2 *1026:C 0.00028335
3 *440:2 0.00050503
4 *440:3 0.00050503
5 *440:4 0.00038673
6 *440:5 0.00038673
7 *440:6 0.00148873
8 *440:7 0.00148873

*RES
1 *440:5 *1026:C 4
2 *440:4 *440:5 0.24
3 *440:7 *440:4 4
4 *440:6 *440:7 0.32
5 *440:3 *440:6 4
6 *440:3 *440:2 0.3
7 *1027:Y *440:2 4
*END

*D_NET *441 0.0281222

*CONN
*I *1052:Y O *C 322.8 391.5 *L 0 *D NAND2X1
*I *1034:A I *C 327.6 334.5 *L 0.0323 *D OAI21X1
*I *1029:A I *C 380.4 334.5 *L 0.0323 *D OAI21X1
*I *693:A I *C 339.6 394.5 *L 0.0333 *D INVX2

*CAP
1 *1052:Y 0.00041594
2 *1034:A 0.00028335
3 *1029:A 0.00068396
4 *693:A 0.00087706
5 *441:4 0.00500118
6 *441:5 0.00552583
7 *441:6 0.00078839
8 *441:7 0.00078839
9 *441:8 0.0045771
10 *441:9 0.0045771
11 *441:10 0.000808
12 *441:11 0.00085397
13 *441:12 0.00043575
14 *441:13 0.00088964
15 *441:14 0.0004737
16 *441:15 0.0011428

*RES
1 *441:11 *1029:A 0.72
2 *441:15 *693:A 0.945
3 *441:7 *441:11 4
4 *441:14 *441:15 0.3
5 *441:7 *441:6 0.6
6 *1052:Y *441:13 0.48
7 *441:13 *441:14 0.24
8 *441:8 *441:6 4
9 *441:12 *441:13 0.3
10 *441:9 *441:8 1.52
11 *441:4 *441:12 4
12 *441:5 *441:9 4
13 *441:5 *441:4 4.8
14 *441:10 *1034:A 4
15 *441:10 *441:5 0.6
*END

*D_NET *442 0.0234884

*CONN
*I *1030:Y O *C 466.8 331.5 *L 0 *D NAND2X1
*I *1029:C I *C 387.6 328.5 *L 0.0216 *D OAI21X1

*CAP
1 *1030:Y 0.00028335
2 *1029:C 0.00115573
3 *442:2 0.00109758
4 *442:3 0.00109758
5 *442:4 0.00127357
6 *442:5 0.00127357
7 *442:6 0.00132574
8 *442:7 0.00501447
9 *442:8 0.00482611
10 *442:9 0.0002605
11 *442:7 *180:28 5.027e-05
12 *442:8 *180:29 5.027e-05
13 *442:7 *180:30 0.00217567
14 *442:8 *180:22 0.00217567
15 *442:8 *180:22 1.661e-05
16 *442:9 *180:23 1.661e-05
17 *442:7 *208:35 0.00069754
18 *442:8 *208:34 0.00069754

*RES
1 *442:4 *1030:Y 4
2 *442:5 *442:4 1.2
3 *442:7 *442:5 4
4 *442:8 *442:7 2.22667
5 *442:9 *442:8 0.0133333
6 *442:3 *442:9 4
7 *442:3 *442:2 0.9
8 *1029:C *442:6 1.185
9 *442:6 *442:2 4
*END

*D_NET *443 0.00768088

*CONN
*I *1032:Y O *C 349.2 274.5 *L 0 *D OAI21X1
*I *1031:C I *C 346.8 241.5 *L 0.0216 *D OAI21X1

*CAP
1 *1032:Y 0.00028335
2 *1031:C 0.000238
3 *443:2 0.00337576
4 *443:3 0.00337576
5 *443:4 0.00040801

*RES
1 *443:2 *1032:Y 4
2 *443:3 *443:2 3.3
3 *443:4 *443:3 4
4 *1031:C *443:4 0.24
*END

*D_NET *444 0.014913

*CONN
*I *1033:Y O *C 325.2 271.5 *L 0 *D XOR2X1
*I *1032:A I *C 342 274.5 *L 0.0323 *D OAI21X1
*I *695:A I *C 334.8 235.5 *L 0.0333 *D INVX2

*CAP
1 *1033:Y 0.00028335
2 *1032:A 0.00028335
3 *695:A 0.00038994
4 *444:3 0.00077668
5 *444:4 0.00077668
6 *444:5 0.00044485
7 *444:6 0.00049156
8 *444:7 0.00336693
9 *444:8 0.00288677
10 *444:9 0.00070604
11 *444:10 0.00096948
12 *444:11 0.00148873
13 *444:12 0.00148873
14 *444:13 0.00055995

*RES
1 *444:3 *1032:A 4
2 *444:4 *444:3 0.6
3 *444:11 *444:4 4
4 *444:12 *444:11 0.32
5 *444:9 *1033:Y 4
6 *444:5 *444:12 4
7 *444:10 *444:9 0.6
8 *444:6 *444:5 0.3
9 *444:10 *444:7 0.48
10 *444:7 *444:6 0.24
11 *444:13 *695:A 0.45
12 *444:8 *444:7 3
13 *444:8 *444:13 4
*END

*D_NET *445 0.00137256

*CONN
*I *1035:Y O *C 318 334.5 *L 0 *D OAI21X1
*I *1034:C I *C 320.4 328.5 *L 0.0216 *D OAI21X1

*CAP
1 *1035:Y 0.00023916
2 *1034:C 0.00023916
3 *445:2 0.00044712
4 *445:3 0.00044712

*RES
1 *1034:C *445:3 0.27
2 *445:2 *1035:Y 0.27
3 *445:2 *445:3 0.24
*END

*D_NET *446 0.0245641

*CONN
*I *1054:Y O *C 279.6 415.5 *L 0 *D OAI21X1
*I *1053:A I *C 322.8 352.5 *L 0.027 *D NOR2X1
*I *1052:A I *C 320.4 394.5 *L 0.0214 *D NAND2X1
*I *696:A I *C 318 355.5 *L 0.0333 *D INVX2

*CAP
1 *1054:Y 0.00124782
2 *1053:A 0.00028335
3 *1052:A 0.00028335
4 *696:A 0.00028335
5 *446:4 0.00202516
6 *446:5 0.00486168
7 *446:6 0.00119354
8 *446:7 0.00114926
9 *446:8 0.00082096
10 *446:9 0.00077668
11 *446:10 0.00337844
12 *446:11 0.00141783
13 *446:12 0.00045335
14 *446:13 0.00045335
15 *446:14 0.002968
16 *446:15 0.002968

*RES
1 *1054:Y *446:11 1.44
2 *446:13 *446:11 4
3 *446:12 *446:13 0.3
4 *446:14 *446:12 4
5 *446:14 *446:15 0.88
6 *446:9 *696:A 4
7 *446:4 *446:15 4
8 *446:9 *446:8 0.6
9 *446:5 *1052:A 4
10 *446:5 *446:4 1.8
11 *446:7 *1053:A 4
12 *446:8 *446:10 0.24
13 *446:10 *446:5 3.3
14 *446:7 *446:6 0.9
15 *446:10 *446:6 0.24
*END

*D_NET *447 0.0101463

*CONN
*I *1037:Y O *C 474 118.5 *L 0 *D NAND2X1
*I *1036:C I *C 462 148.5 *L 0.0216 *D OAI21X1

*CAP
1 *1037:Y 0.00028335
2 *1036:C 0.00028335
3 *447:2 0.00233434
4 *447:3 0.00233434
5 *447:4 0.00117511
6 *447:5 0.00117511
7 *447:6 0.00128036
8 *447:7 0.00128036

*RES
1 *447:3 *1037:Y 4
2 *447:3 *447:2 2.1
3 *447:7 *447:2 4
4 *447:6 *447:7 0.4
5 *447:4 *1036:C 4
6 *447:5 *447:6 4
7 *447:5 *447:4 0.9
*END

*D_NET *448 0.0109807

*CONN
*I *1040:Y O *C 457.2 331.5 *L 0 *D AOI22X1
*I *1039:C I *C 486 328.5 *L 0.0216 *D OAI21X1

*CAP
1 *1040:Y 0.00028335
2 *1039:C 0.00028335
3 *448:2 0.00107892
4 *448:3 0.00107892
5 *448:4 0.00073671
6 *448:5 0.00073671
7 *448:6 0.00259418
8 *448:7 0.00259418
9 *448:6 *180:28 0.00079719
10 *448:7 *180:29 0.00079719

*RES
1 *448:4 *1039:C 4
2 *448:5 *448:4 0.6
3 *448:6 *448:5 4
4 *448:7 *448:6 0.96
5 *448:3 *448:7 4
6 *448:3 *448:2 0.9
7 *448:2 *1040:Y 4
*END

*D_NET *449 0.0013102

*CONN
*I *1042:Y O *C 555.6 178.5 *L 0 *D NAND2X1
*I *1041:C I *C 550.8 181.5 *L 0.0216 *D OAI21X1

*CAP
1 *1042:Y 0.00041594
2 *1041:C 0.00023916
3 *449:2 0.0006551

*RES
1 *449:2 *1042:Y 0.48
2 *449:2 *1041:C 0.27
*END

*D_NET *450 0.0201976

*CONN
*I *1047:Y O *C 310.8 421.5 *L 0 *D NAND3X1
*I *701:A I *C 346.8 355.5 *L 0.0333 *D INVX2

*CAP
1 *1047:Y 0.00149319
2 *701:A 0.00136793
3 *450:2 0.0016632
4 *450:3 0.00572626
5 *450:4 0.00153794
6 *450:5 0.00134143
7 *450:6 0.00108285
8 *450:7 0.00598484

*RES
1 *1047:Y *450:2 1.68
2 *450:6 *450:2 4
3 *450:5 *450:6 0.9
4 *450:5 *450:7 0.48
5 *450:4 *701:A 1.44
6 *450:3 *450:7 5.7
7 *450:3 *450:4 4
*END

*D_NET *451 0.00767308

*CONN
*I *1049:Y O *C 303.6 454.5 *L 0 *D NOR2X1
*I *1047:A I *C 303.6 421.5 *L 0.0269 *D NAND3X1

*CAP
1 *1049:Y 0.00028335
2 *1047:A 0.00028335
3 *451:2 0.00270911
4 *451:3 0.00270911
5 *451:3 *453:5 0.00084408
6 *451:2 *453:6 0.00084408

*RES
1 *451:3 *1049:Y 4
2 *451:2 *451:3 3.3
3 *1047:A *451:2 4
*END

*D_NET *452 0.00684104

*CONN
*I *1048:Y O *C 310.8 454.5 *L 0 *D NOR2X1
*I *1047:C I *C 308.4 424.5 *L 0.0272 *D NAND3X1

*CAP
1 *1048:Y 0.00020796
2 *1047:C 0.00028335
3 *452:2 0.00272014
4 *452:3 0.00272014
5 *452:4 0.00043575
6 *452:5 0.0004737

*RES
1 *452:5 *1048:Y 0.24
2 *452:4 *452:5 0.3
3 *452:2 *452:4 4
4 *452:3 *452:2 2.7
5 *1047:C *452:3 4
*END

*D_NET *453 0.0284914

*CONN
*I *1191:Y O *C 274.8 478.5 *L 0 *D NAND2X1
*I *1189:B I *C 267.6 478.5 *L 0.033 *D OAI21X1
*I *1059:B I *C 301.2 421.5 *L 0.0216 *D NAND2X1
*I *1048:A I *C 308.4 457.5 *L 0.027 *D NOR2X1
*I *738:A I *C 298.8 394.5 *L 0.0333 *D INVX2

*CAP
1 *1191:Y 0.0016731
2 *1189:B 0.0006239
3 *1059:B 0.00028335
4 *1048:A 0.00028335
5 *738:A 0.000238
6 *453:5 0.00377775
7 *453:6 0.00634075
8 *453:7 0.00040801
9 *453:8 0.00284635
10 *453:9 0.00121921
11 *453:10 0.00137642
12 *453:11 0.00137642
13 *453:12 0.00100229
14 *453:13 0.00100229
15 *453:14 0.00150493
16 *453:15 0.00197967
17 *453:16 0.00086749
18 *453:5 *451:3 0.00084408
19 *453:6 *451:2 0.00084408

*RES
1 *738:A *453:7 0.24
2 *453:8 *453:7 4
3 *453:12 *1048:A 4
4 *453:8 *453:6 2.7
5 *453:6 *1059:B 4
6 *453:12 *453:13 0.9
7 *453:6 *453:5 4.5
8 *453:16 *453:13 4
9 *453:15 *453:5 4
10 *453:15 *453:16 0.24
11 *453:14 *453:15 0.48
12 *453:10 *453:14 4
13 *453:10 *453:11 1.2
14 *453:9 *453:11 4
15 *1191:Y *453:9 1.2
16 *1189:B *1191:Y 0.72
*END

*D_NET *454 0.0136722

*CONN
*I *1051:Y O *C 346.8 418.5 *L 0 *D AOI22X1
*I *1050:C I *C 346.8 481.5 *L 0.0216 *D OAI21X1

*CAP
1 *1051:Y 0.00028335
2 *1050:C 0.00021672
3 *454:2 0.00038673
4 *454:3 0.0003843
5 *454:4 0.00553206
6 *454:5 0.00548778
7 *454:5 0.00015347
8 *454:4 0.00015347
9 *454:5 0.00053714
10 *454:4 0.00053714

*RES
1 *1050:C *454:2 0.24
2 *454:5 *454:2 4
3 *454:4 *454:5 6.3
4 *454:3 *454:4 0.24
5 *1051:Y *454:3 4
*END

*D_NET *455 0.0407469

*CONN
*I *1086:Y O *C 270 391.5 *L 0 *D NAND2X1
*I *1085:B I *C 248.4 268.5 *L 0.0216 *D NAND2X1
*I *746:A I *C 298.8 334.5 *L 0.0333 *D INVX2

*CAP
1 *1086:Y 0.00028335
2 *1085:B 0.000476
3 *746:A 0.00028335
4 *455:3 0.00338329
5 *455:4 0.00383239
6 *455:5 0.00066935
7 *455:6 0.00341771
8 *455:7 0.00348081
9 *455:8 0.00221557
10 *455:9 0.00221557
11 *455:10 0.00078413
12 *455:11 0.00078413
13 *455:12 0.00426782
14 *455:13 0.00426782
15 *455:14 0.00064601
16 *455:15 0.00209895
17 *455:16 0.00277087
18 *455:17 0.00277087
19 *455:18 0.00209895

*RES
1 *455:18 *1086:Y 4
2 *455:15 *455:18 2.1
3 *455:16 *455:15 4
4 *455:16 *455:17 0.96
5 *455:3 *455:17 4
6 *455:4 *746:A 4
7 *455:4 *455:3 3.6
8 *455:5 *455:4 0.6
9 *455:8 *455:5 0.12
10 *455:9 *455:8 2.1
11 *455:9 *455:6 0.12
12 *455:7 *455:6 3.3
13 *455:12 *455:7 4
14 *455:13 *455:12 1.52
15 *455:10 *455:13 4
16 *455:11 *455:10 0.6
17 *455:14 *455:11 4
18 *1085:B *455:14 0.48
*END

*D_NET *456 0.00597576

*CONN
*I *1201:Y O *C 267.6 418.5 *L 0 *D NAND2X1
*I *1054:A I *C 272.4 415.5 *L 0.0323 *D OAI21X1
*I *748:A I *C 246 415.5 *L 0.0333 *D INVX2

*CAP
1 *1201:Y 0.002288
2 *1054:A 0.00019498
3 *748:A 0.00023916
4 *456:3 0.0023192
5 *456:4 0.00046072
6 *456:5 0.0004737

*RES
1 *456:4 *1054:A 0.225
2 *456:4 *456:5 0.3
3 *1201:Y *456:5 0.24
4 *456:3 *1201:Y 2.16
5 *748:A *456:3 0.27
*END

*D_NET *457 0.00661478

*CONN
*I *1055:Y O *C 274.8 448.5 *L 0 *D NAND3X1
*I *1054:C I *C 279.6 421.5 *L 0.0216 *D OAI21X1

*CAP
1 *1055:Y 0.00044597
2 *1054:C 0.00028335
3 *457:2 0.00061598
4 *457:3 0.00263474
5 *457:4 0.00263474

*RES
1 *457:3 *1054:C 4
2 *457:3 *457:4 2.7
3 *457:2 *457:4 4
4 *1055:Y *457:2 0.48
*END

*D_NET *458 0.0287093

*CONN
*I *1210:Y O *C 58.8 514.5 *L 0 *D NOR2X1
*I *1209:A I *C 126 475.5 *L 0.0214 *D NAND2X1
*I *1202:A I *C 109.2 508.5 *L 0.0269 *D NAND3X1
*I *1056:A I *C 111.6 481.5 *L 0.0269 *D NAND3X1

*CAP
1 *1210:Y 0.00028335
2 *1209:A 0.00028335
3 *1202:A 0.000238
4 *1056:A 0.000476
5 *458:4 0.00103591
6 *458:5 0.00103591
7 *458:6 0.00040801
8 *458:7 0.00043431
9 *458:8 0.00043431
10 *458:9 0.00050503
11 *458:10 0.00307197
12 *458:11 0.00374205
13 *458:12 0.00117511
14 *458:13 0.00236496
15 *458:14 0.00236496
16 *458:15 0.00064601
17 *458:16 0.0040089
18 *458:17 0.0040089
19 *458:16 *572:6 0.00109614
20 *458:17 *572:7 0.00109614

*RES
1 *458:4 *1210:Y 4
2 *458:5 *458:4 0.9
3 *458:17 *458:5 4
4 *458:6 *1202:A 0.24
5 *458:7 *1209:A 4
6 *458:17 *458:16 1.6
7 *458:9 *458:6 4
8 *458:8 *458:7 0.3
9 *458:10 *458:16 4
10 *458:10 *458:9 0.3
11 *458:15 *1056:A 0.48
12 *458:13 *458:8 4
13 *458:11 *458:10 2.4
14 *458:11 *458:15 4
15 *458:14 *458:13 0.64
16 *458:12 *458:11 0.9
17 *458:12 *458:14 4
*END

*D_NET *459 0.0013535

*CONN
*I *1058:Y O *C 421.2 151.5 *L 0 *D NAND2X1
*I *1057:C I *C 426 148.5 *L 0.0216 *D OAI21X1

*CAP
1 *1058:Y 0.00043759
2 *1057:C 0.00023916
3 *459:2 0.00067675

*RES
1 *1057:C *459:2 0.27
2 *1058:Y *459:2 0.48
*END

*D_NET *460 0.0510642

*CONN
*I *1200:Y O *C 210 421.5 *L 0 *D NAND3X1
*I *1199:B I *C 219.6 514.5 *L 0.027 *D OR2X1
*I *1188:B I *C 248.4 478.5 *L 0.033 *D OAI21X1
*I *1059:A I *C 296.4 415.5 *L 0.0214 *D NAND2X1

*CAP
1 *1200:Y 0.00044598
2 *1199:B 0.00020796
3 *1188:B 0.00028335
4 *1059:A 0.00028335
5 *460:4 0.00072819
6 *460:5 0.00072819
7 *460:6 0.00610549
8 *460:7 0.00606168
9 *460:8 0.00507281
10 *460:9 0.00507281
11 *460:10 0.00691947
12 *460:11 0.00254498
13 *460:12 0.000884
14 *460:13 0.00121664
15 *460:14 0.00334794
16 *460:15 0.00339175
17 *460:16 0.00476724
18 *460:17 0.00037797
19 *460:18 0.00131219
20 *460:19 0.00131219

*RES
1 *460:18 *1059:A 4
2 *460:8 *1188:B 4
3 *460:18 *460:19 1.2
4 *460:9 *460:8 5.1
5 *460:16 *460:19 4
6 *460:10 *460:9 4
7 *460:10 *460:16 1.6
8 *460:11 *460:10 0.88
9 *460:4 *460:11 4
10 *460:5 *460:4 0.6
11 *460:12 *460:5 4
12 *1200:Y *460:13 0.48
13 *460:13 *460:12 0.72
14 *460:7 *460:13 4
15 *460:7 *460:6 6
16 *460:6 *460:15 0.24
17 *460:15 *460:14 3.3
18 *460:17 *460:14 4
19 *460:17 *1199:B 0.24
*END

*D_NET *461 0.0225801

*CONN
*I *1077:Y O *C 171.6 358.5 *L 0 *D NAND2X1
*I *1076:A I *C 121.2 358.5 *L 0.0323 *D AOI22X1
*I *1075:A I *C 121.2 391.5 *L 0.0323 *D AOI22X1
*I *1074:D I *C 142.8 358.5 *L 0.0332 *D OAI22X1
*I *743:A I *C 130.8 355.5 *L 0.0333 *D INVX2

*CAP
1 *1077:Y 0.00105689
2 *1076:A 0.00028335
3 *1075:A 0.00028335
4 *1074:D 0.00028335
5 *743:A 0.000476
6 *461:5 0.00091552
7 *461:6 0.00044485
8 *461:7 0.00288961
9 *461:8 0.00379144
10 *461:9 0.00081422
11 *461:10 0.00190334
12 *461:11 0.00326444
13 *461:12 0.00175385
14 *461:13 0.0012269
15 *461:14 0.00038383
16 *461:15 0.00038383
17 *461:16 0.00064601
18 *461:17 0.00101164
19 *461:18 0.00038383
20 *461:19 0.00038383

*RES
1 *461:9 *1076:A 4
2 *461:7 *1075:A 4
3 *461:16 *743:A 0.48
4 *461:9 *461:8 0.6
5 *461:8 *461:7 2.7
6 *461:6 *461:16 4
7 *461:8 *461:17 0.48
8 *461:6 *461:5 0.3
9 *461:5 *461:17 0.6
10 *461:19 *1074:D 4
11 *461:12 *461:5 4
12 *461:18 *461:19 0.24
13 *461:12 *461:11 0.48
14 *461:11 *461:18 4
15 *461:11 *461:10 0.56
16 *461:14 *461:10 4
17 *461:14 *461:15 0.24
18 *461:13 *461:15 4
19 *461:13 *1077:Y 1.185
*END

*D_NET *462 0.00397972

*CONN
*I *1075:Y O *C 116.4 391.5 *L 0 *D AOI22X1
*I *722:A I *C 109.2 394.5 *L 0.0333 *D INVX2

*CAP
1 *1075:Y 0.00028335
2 *722:A 0.000238
3 *462:2 0.00040801
4 *462:3 0.00047919
5 *462:4 0.00073681
6 *462:5 0.00078837
7 *462:6 0.00104599

*RES
1 *462:5 *1075:Y 4
2 *462:5 *462:6 0.6
3 *462:4 *462:6 0.48
4 *462:3 *462:4 0.3
5 *462:2 *462:3 4
6 *722:A *462:2 0.24
*END

*D_NET *463 0.00576514

*CONN
*I *1076:Y O *C 116.4 358.5 *L 0 *D AOI22X1
*I *723:A I *C 116.4 334.5 *L 0.0333 *D INVX2

*CAP
1 *1076:Y 0.00028335
2 *723:A 0.00028335
3 *463:2 0.00198534
4 *463:3 0.00198534
5 *463:3 0.00061388
6 *463:2 0.00061388

*RES
1 *463:3 *1076:Y 4
2 *463:2 *463:3 2.4
3 *723:A *463:2 4
*END

*D_NET *464 0.0027345

*CONN
*I *1078:Y O *C 51.6 331.5 *L 0 *D AOI22X1
*I *724:A I *C 44.4 334.5 *L 0.0333 *D INVX2

*CAP
1 *1078:Y 0.00028335
2 *724:A 0.000238
3 *464:2 0.00040801
4 *464:3 0.00073256
5 *464:4 0.00047494
6 *464:5 0.00059764

*RES
1 *464:5 *1078:Y 4
2 *464:3 *464:5 0.48
3 *464:3 *464:4 0.3
4 *464:2 *464:4 4
5 *724:A *464:2 0.24
*END

*D_NET *465 0.058555

*CONN
*I *1084:Y O *C 181.2 391.5 *L 0 *D NAND2X1
*I *1083:B I *C 44.4 358.5 *L 0.033 *D OAI22X1
*I *1082:B I *C 44.4 391.5 *L 0.033 *D OAI22X1
*I *1081:B I *C 97.2 358.5 *L 0.033 *D OAI22X1
*I *1080:B I *C 75.6 391.5 *L 0.033 *D OAI22X1
*I *1079:B I *C 73.2 358.5 *L 0.033 *D OAI22X1
*I *1078:C I *C 56.4 331.5 *L 0.033 *D AOI22X1
*I *739:A I *C 56.4 355.5 *L 0.0333 *D INVX2

*CAP
1 *1084:Y 0.00020796
2 *1083:B 0.00028335
3 *1082:B 0.00028335
4 *1081:B 0.00028335
5 *1080:B 0.00028335
6 *1079:B 0.00019498
7 *1078:C 0.00023916
8 *739:A 0.00028335
9 *465:8 0.00373407
10 *465:9 0.00071332
11 *465:10 0.00287378
12 *465:11 0.00302784
13 *465:12 0.00069503
14 *465:13 0.00102456
15 *465:14 0.00071027
16 *465:15 0.00820187
17 *465:16 0.00824836
18 *465:17 0.00294125
19 *465:18 0.00225801
20 *465:19 0.00128888
21 *465:20 0.00240718
22 *465:21 0.00151105
23 *465:22 0.00189419
24 *465:23 0.00179371
25 *465:24 0.0033041
26 *465:25 0.00262669
27 *465:26 0.00262669
28 *465:27 0.00037797
29 *465:28 0.00044712
30 *465:29 0.00037797
31 *465:30 0.00036499
32 *465:31 0.00051131
33 *465:32 0.0004675
34 *465:33 0.00047297
35 *465:34 0.00047297
36 *465:35 0.00112248

*RES
1 *465:24 *1082:B 4
2 *1078:C *465:28 0.27
3 *465:8 *465:24 3.3
4 *465:8 *1083:B 4
5 *465:28 *465:29 0.24
6 *465:32 *739:A 4
7 *465:9 *465:8 0.6
8 *465:23 *465:29 4
9 *465:31 *465:32 0.3
10 *465:21 *465:9 4
11 *465:23 *465:22 1.8
12 *465:31 *465:22 0.24
13 *465:21 *465:20 0.48
14 *465:20 *465:22 4
15 *465:20 *465:19 0.4
16 *465:14 *465:19 4
17 *465:30 *1079:B 0.225
18 *465:14 *465:13 0.6
19 *465:13 *465:30 4
20 *465:13 *465:12 0.48
21 *465:10 *1080:B 4
22 *465:12 *465:11 0.3
23 *465:11 *465:10 3
24 *465:33 *1081:B 4
25 *465:18 *465:11 4
26 *465:33 *465:34 0.3
27 *465:18 *465:17 0.72
28 *465:17 *465:34 4
29 *465:17 *465:35 0.32
30 *465:35 *465:16 0.1
31 *465:27 *1084:Y 0.24
32 *465:16 *465:15 2.4
33 *465:25 *465:27 4
34 *465:26 *465:15 4
35 *465:26 *465:25 2.7
*END

*D_NET *466 0.048811

*CONN
*I *1231:B I *C 171.6 418.5 *L 0.0214 *D AND2X2
*I *1198:Y O *C 200.4 394.5 *L 0 *D NOR2X1
*I *1197:A I *C 231.6 391.5 *L 0.0323 *D AOI22X1
*I *1191:B I *C 277.2 481.5 *L 0.0216 *D NAND2X1
*I *1084:A I *C 178.8 394.5 *L 0.0214 *D NAND2X1

*CAP
1 *1231:B 0.00028335
2 *1198:Y 0.00124782
3 *1197:A 0.00028335
4 *1191:B 0.00028335
5 *1084:A 0.00028335
6 *466:5 0.00681911
7 *466:6 0.00731988
8 *466:7 0.00078412
9 *466:8 0.00163054
10 *466:9 0.00175673
11 *466:10 0.00045335
12 *466:11 0.00103749
13 *466:12 0.00082368
14 *466:13 0.00432482
15 *466:14 0.00480338
16 *466:15 0.00087131
17 *466:16 0.00047494
18 *466:17 0.00047494
19 *466:18 0.00514263
20 *466:19 0.00514263
21 *466:20 0.00127739
22 *466:21 0.00127739
23 *466:22 0.00141783
24 *466:23 0.00059764

*RES
1 *466:23 *1231:B 4
2 *466:23 *466:11 0.48
3 *466:12 *466:11 0.6
4 *466:10 *1084:A 4
5 *466:12 *466:8 0.24
6 *466:22 *1198:Y 1.44
7 *466:10 *466:9 0.3
8 *466:9 *466:8 1.5
9 *466:17 *466:22 4
10 *466:15 *466:9 4
11 *466:17 *466:16 0.3
12 *466:20 *1191:B 4
13 *466:15 *466:14 0.24
14 *466:14 *466:16 4
15 *466:21 *466:20 1.2
16 *466:7 *1197:A 4
17 *466:14 *466:13 1.52
18 *466:18 *466:21 4
19 *466:7 *466:6 0.6
20 *466:6 *466:13 4
21 *466:19 *466:18 1.52
22 *466:6 *466:5 7.2
23 *466:5 *466:19 4
*END

*D_NET *467 0.019802

*CONN
*I *1229:Y O *C 250.8 328.5 *L 0 *D NAND3X1
*I *1226:A I *C 301.2 295.5 *L 0.0214 *D NAND2X1
*I *742:A I *C 310.8 295.5 *L 0.0333 *D INVX2

*CAP
1 *1229:Y 0.00083188
2 *1226:A 0.00100189
3 *742:A 0.00083188
4 *467:3 0.00050503
5 *467:4 0.00050503
6 *467:5 0.00427442
7 *467:6 0.00427442
8 *467:7 0.00100189
9 *467:8 0.00328776
10 *467:9 0.00328776

*RES
1 *1229:Y *467:7 0.96
2 *467:3 *467:7 4
3 *467:4 *467:3 0.3
4 *467:6 *467:4 4
5 *467:6 *467:5 1.36
6 *467:8 *467:5 4
7 *467:9 *467:8 3
8 *1226:A *467:9 4
9 *1226:A *742:A 0.96
*END

*D_NET *468 0.0758934

*CONN
*I *1227:Y O *C 193.2 361.5 *L 0 *D NAND3X1
*I *1226:B I *C 296.4 301.5 *L 0.0216 *D NAND2X1
*I *1212:C I *C 159.6 481.5 *L 0.0216 *D OAI21X1
*I *1085:A I *C 243.6 274.5 *L 0.0214 *D NAND2X1

*CAP
1 *1227:Y 0.00019498
2 *1226:B 0.000476
3 *1212:C 0.00028335
4 *1085:A 0.00018198
5 *468:4 0.00133804
6 *468:5 0.00138185
7 *468:6 0.00047297
8 *468:7 0.00047297
9 *468:8 0.00264352
10 *468:9 0.00264352
11 *468:10 0.00480026
12 *468:11 0.00617189
13 *468:12 0.00176438
14 *468:13 0.00728811
15 *468:14 0.00728811
16 *468:15 0.00391623
17 *468:16 0.00692205
18 *468:17 0.0007134
19 *468:18 0.0007134
20 *468:19 0.00339857
21 *468:20 0.00064601
22 *468:21 0.00035199
23 *468:22 0.00036499
24 *468:23 0.00833858
25 *468:24 0.00838239
26 *468:25 0.00237193
27 *468:26 0.00237193

*RES
1 *468:4 *1212:C 4
2 *468:5 *468:4 1.2
3 *468:5 *468:26 0.24
4 *468:25 *468:26 2.1
5 *468:22 *1227:Y 0.225
6 *468:24 *468:25 0.24
7 *468:20 *1226:B 0.48
8 *468:18 *468:22 4
9 *468:23 *468:24 8.1
10 *468:6 *468:20 4
11 *468:21 *1085:A 0.21
12 *468:18 *468:17 0.6
13 *468:19 *468:23 4
14 *468:7 *468:6 0.3
15 *468:9 *468:21 4
16 *468:16 *468:17 4
17 *468:19 *468:16 1.04
18 *468:10 *468:7 4
19 *468:9 *468:8 2.4
20 *468:16 *468:15 1.2
21 *468:11 *468:10 1.68
22 *468:11 *468:8 4
23 *468:13 *468:15 4
24 *468:12 *468:11 0.48
25 *468:14 *468:13 6.9
26 *468:14 *468:12 4
*END

*D_NET *469 0.0234357

*CONN
*I *1091:Y O *C 270 331.5 *L 0 *D AOI21X1
*I *1087:B I *C 217.2 271.5 *L 0.033 *D OAI21X1

*CAP
1 *1091:Y 0.00028335
2 *1087:B 0.00041594
3 *469:2 0.00128635
4 *469:3 0.00128635
5 *469:4 0.00405424
6 *469:5 0.00405424
7 *469:6 0.00481381
8 *469:7 0.00481381
9 *469:8 0.00058595
10 *469:4 *594:54 0.00015347
11 *469:5 *594:48 0.00015347
12 *469:4 *594:48 0.00069061
13 *469:5 *594:42 0.00069061
14 *469:4 *594:42 7.673e-05
15 *469:5 *594:15 7.673e-05

*RES
1 *469:2 *1091:Y 4
2 *469:3 *469:2 1.2
3 *469:6 *469:3 4
4 *469:7 *469:6 1.6
5 *469:4 *469:7 4
6 *469:5 *469:4 4.8
7 *1087:B *469:8 0.48
8 *469:8 *469:5 4
*END

*D_NET *470 0.00617114

*CONN
*I *1088:Y O *C 212.4 295.5 *L 0 *D OAI21X1
*I *1087:C I *C 212.4 268.5 *L 0.0216 *D OAI21X1

*CAP
1 *1088:Y 0.00028335
2 *1087:C 0.00028335
3 *470:2 0.00280222
4 *470:3 0.00280222

*RES
1 *470:3 *1088:Y 4
2 *470:2 *1087:C 4
3 *470:2 *470:3 2.7
*END

*D_NET *471 0.00453772

*CONN
*I *1090:Y O *C 198 295.5 *L 0 *D OAI22X1
*I *1088:A I *C 205.2 295.5 *L 0.0323 *D OAI21X1

*CAP
1 *1090:Y 0.00028335
2 *1088:A 0.00028335
3 *471:2 0.00047919
4 *471:3 0.00047919
5 *471:4 0.00047919
6 *471:5 0.00047919
7 *471:6 0.00102713
8 *471:7 0.00102713

*RES
1 *471:5 *1088:A 4
2 *471:5 *471:4 0.3
3 *471:6 *471:4 4
4 *471:7 *471:6 0.24
5 *471:2 *471:7 4
6 *471:3 *1090:Y 4
7 *471:3 *471:2 0.3
*END

*D_NET *472 0.0187989

*CONN
*I *1089:Y O *C 152.4 274.5 *L 0 *D OAI22X1
*I *1088:B I *C 207.6 298.5 *L 0.033 *D OAI21X1

*CAP
1 *1089:Y 0.00028335
2 *1088:B 0.00028335
3 *472:2 0.00070429
4 *472:3 0.00070429
5 *472:4 0.00176261
6 *472:5 0.00176261
7 *472:6 0.00428054
8 *472:7 0.00428054
9 *472:6 *602:76 0.00029895
10 *472:7 *602:77 0.00029895
11 *472:6 *602:77 0.00199298
12 *472:7 *602:78 0.00199298
13 *472:2 *602:36 7.673e-05
14 *472:3 *602:37 7.673e-05

*RES
1 *472:2 *1088:B 4
2 *472:3 *472:2 0.6
3 *472:6 *472:3 4
4 *472:7 *472:6 1.84
5 *472:4 *472:7 4
6 *472:5 *1089:Y 4
7 *472:5 *472:4 1.8
*END

*D_NET *473 0.0128338

*CONN
*I *659:A I *C 87.6 271.5 *L 0.0161 *D BUFX2
*I *1132:Y O *C 82.8 331.5 *L 0 *D NAND2X1

*CAP
1 *659:A 0.00028335
2 *1132:Y 0.00020796
3 *473:2 0.00581225
4 *473:3 0.00576844
5 *473:4 0.00037797
6 *473:5 0.00038383

*RES
1 *473:3 *659:A 4
2 *473:3 *473:2 6
3 *473:5 *473:2 0.24
4 *1132:Y *473:4 0.24
5 *473:4 *473:5 4
*END

*D_NET *474 0.00634376

*CONN
*I *658:A I *C 80.4 271.5 *L 0.0161 *D BUFX2
*I *1136:Y O *C 80.4 298.5 *L 0 *D NAND2X1

*CAP
1 *658:A 0.00028335
2 *1136:Y 0.00028335
3 *474:2 0.00227465
4 *474:3 0.00227465
5 *474:3 *240:4 0.00046041
6 *474:2 *240:5 0.00046041
7 *474:3 *240:5 0.00015347
8 *474:2 *240:6 0.00015347

*RES
1 *474:3 *1136:Y 4
2 *474:2 *474:3 2.7
3 *658:A *474:2 4
*END

*D_NET *475 0.0204316

*CONN
*I *1092:Y O *C 303.6 274.5 *L 0 *D OAI22X1
*I *1091:C I *C 270 337.5 *L 0.0277 *D AOI21X1

*CAP
1 *1092:Y 0.00028335
2 *1091:C 0.00028335
3 *475:2 0.00326005
4 *475:3 0.00326248
5 *475:4 0.00170573
6 *475:5 0.00165902
7 *475:6 0.00298921
8 *475:7 0.00298921
9 *475:8 0.00159362
10 *475:9 0.0016379
11 *475:10 0.00038383
12 *475:11 0.00038383

*RES
1 *475:10 *1091:C 4
2 *475:10 *475:11 0.24
3 *475:7 *475:11 4
4 *475:7 *475:6 1.04
5 *475:8 *475:6 4
6 *475:9 *475:8 1.5
7 *475:9 *475:2 0.24
8 *475:3 *475:2 3.3
9 *475:4 *475:3 0.24
10 *475:5 *475:4 1.5
11 *1092:Y *475:5 4
*END

*D_NET *476 0.0299846

*CONN
*I *1097:Y O *C 262.8 238.5 *L 0 *D AOI21X1
*I *1093:B I *C 123.6 238.5 *L 0.033 *D OAI21X1

*CAP
1 *1097:Y 0.00092709
2 *1093:B 0.00028335
3 *476:2 0.00044485
4 *476:3 0.00044485
5 *476:4 0.0010971
6 *476:5 0.0129187
7 *476:6 0.0129187
8 *476:7 0.00047494
9 *476:8 0.00047494

*RES
1 *476:4 *1097:Y 0.945
2 *476:3 *476:4 4
3 *476:3 *476:2 0.3
4 *476:5 *476:2 4
5 *476:6 *476:5 4.32
6 *476:8 *476:6 4
7 *476:7 *1093:B 4
8 *476:7 *476:8 0.3
*END

*D_NET *477 0.00806228

*CONN
*I *1094:Y O *C 109.2 214.5 *L 0 *D OAI21X1
*I *1093:C I *C 118.8 241.5 *L 0.0216 *D OAI21X1

*CAP
1 *1094:Y 0.00028335
2 *1093:C 0.00046112
3 *477:2 0.00228974
4 *477:3 0.00063113
5 *477:4 0.00255945
6 *477:5 0.00060973
7 *477:4 *238:4 0.00061388
8 *477:2 *238:5 0.00061388

*RES
1 *477:3 *1093:C 0.465
2 *477:5 *477:3 4
3 *477:4 *477:5 0.48
4 *477:2 *1094:Y 4
5 *477:2 *477:4 2.7
*END

*D_NET *478 0.00852544

*CONN
*I *1096:Y O *C 102 175.5 *L 0 *D OAI22X1
*I *1094:A I *C 102 214.5 *L 0.0323 *D OAI21X1

*CAP
1 *1096:Y 0.00028335
2 *1094:A 0.00028335
3 *478:2 0.00397937
4 *478:3 0.00397937

*RES
1 *478:2 *1094:A 4
2 *478:3 *1096:Y 4
3 *478:3 *478:2 3.9
*END

*D_NET *479 0.00945306

*CONN
*I *1095:Y O *C 75.6 214.5 *L 0 *D OAI22X1
*I *1094:B I *C 104.4 211.5 *L 0.033 *D OAI21X1

*CAP
1 *1095:Y 0.00028335
2 *1094:B 0.00028335
3 *479:2 0.00080253
4 *479:3 0.00080253
5 *479:4 0.00313562
6 *479:5 0.00313562
7 *479:6 0.00050503
8 *479:7 0.00050503

*RES
1 *479:3 *1094:B 4
2 *479:3 *479:2 0.6
3 *479:4 *479:2 4
4 *479:5 *479:4 0.96
5 *479:7 *479:5 4
6 *479:6 *1095:Y 4
7 *479:6 *479:7 0.3
*END

*D_NET *480 0.0244089

*CONN
*I *1098:Y O *C 313.2 175.5 *L 0 *D OAI22X1
*I *1097:C I *C 262.8 232.5 *L 0.0277 *D AOI21X1

*CAP
1 *1098:Y 0.00028335
2 *1097:C 0.00042106
3 *480:2 0.00472177
4 *480:3 0.00472177
5 *480:4 0.00047494
6 *480:5 0.00047494
7 *480:6 0.00533995
8 *480:7 0.00533995
9 *480:8 0.00059107
10 *480:2 *600:12 0.00053714
11 *480:3 *600:13 0.00053714
12 *480:2 *600:13 0.00046041
13 *480:3 *600:14 0.00046041
14 *480:2 *600:26 2.251e-05
15 *480:3 *600:27 2.251e-05

*RES
1 *480:5 *1098:Y 4
2 *480:5 *480:4 0.3
3 *480:6 *480:4 4
4 *480:7 *480:6 1.84
5 *480:3 *480:7 4
6 *480:3 *480:2 5.4
7 *480:8 *480:2 4
8 *480:8 *1097:C 0.465
*END

*D_NET *481 0.0086162

*CONN
*I *1103:Y O *C 253.2 211.5 *L 0 *D AOI21X1
*I *1099:B I *C 231.6 211.5 *L 0.033 *D OAI21X1

*CAP
1 *1103:Y 0.00043298
2 *1099:B 0.00018198
3 *481:2 0.00078837
4 *481:3 0.00078837
5 *481:4 0.00077791
6 *481:5 0.00077791
7 *481:6 0.00060299
8 *481:7 0.00035199
9 *481:8 0.00195685
10 *481:9 0.00195685

*RES
1 *481:6 *1103:Y 0.465
2 *481:2 *481:6 4
3 *481:3 *481:2 0.6
4 *481:9 *481:3 4
5 *481:8 *481:9 0.48
6 *481:5 *481:8 4
7 *481:5 *481:4 0.6
8 *1099:B *481:7 0.21
9 *481:7 *481:4 4
*END

*D_NET *482 0.0082969

*CONN
*I *1100:Y O *C 212.4 235.5 *L 0 *D OAI21X1
*I *1099:C I *C 226.8 208.5 *L 0.0216 *D OAI21X1

*CAP
1 *1100:Y 0.00084635
2 *1099:C 0.00041594
3 *482:2 0.00101636
4 *482:3 0.00271615
5 *482:4 0.00271615
6 *482:5 0.00058595

*RES
1 *482:5 *1099:C 0.48
2 *482:4 *482:5 4
3 *482:4 *482:3 2.7
4 *482:2 *482:3 4
5 *1100:Y *482:2 0.945
*END

*D_NET *483 0.00448028

*CONN
*I *1102:Y O *C 198 235.5 *L 0 *D OAI22X1
*I *1100:A I *C 205.2 235.5 *L 0.0323 *D OAI21X1

*CAP
1 *1102:Y 0.00028335
2 *1100:A 0.00028335
3 *483:2 0.00050503
4 *483:3 0.00050503
5 *483:4 0.00047919
6 *483:5 0.00052904
7 *483:6 0.00075271
8 *483:7 0.00075271
9 *483:8 0.00038987

*RES
1 *483:2 *1100:A 4
2 *483:3 *483:2 0.3
3 *483:6 *483:3 4
4 *483:7 *483:6 0.16
5 *483:8 *483:7 4
6 *483:5 *483:8 0.24
7 *483:5 *483:4 0.3
8 *483:4 *1102:Y 4
*END

*D_NET *484 0.0154674

*CONN
*I *1101:Y O *C 159.6 214.5 *L 0 *D OAI22X1
*I *1100:B I *C 207.6 238.5 *L 0.033 *D OAI21X1

*CAP
1 *1101:Y 0.00028335
2 *1100:B 0.00028335
3 *484:2 0.00188859
4 *484:3 0.00188859
5 *484:4 0.00050503
6 *484:5 0.00050503
7 *484:6 0.00429263
8 *484:7 0.00433407
9 *484:8 0.0004903
10 *484:7 *294:6 0.00049824
11 *484:6 *294:7 0.00049824

*RES
1 *484:2 *1100:B 4
2 *484:3 *484:2 1.8
3 *484:8 *484:3 4
4 *484:7 *484:8 0.1
5 *484:6 *484:7 1.6
6 *484:5 *484:6 4
7 *484:4 *1101:Y 4
8 *484:4 *484:5 0.3
*END

*D_NET *485 0.0255049

*CONN
*I *1104:Y O *C 334.8 175.5 *L 0 *D OAI22X1
*I *1103:C I *C 253.2 217.5 *L 0.0277 *D AOI21X1

*CAP
1 *1104:Y 0.00028335
2 *1103:C 0.00028335
3 *485:2 0.00190705
4 *485:3 0.0019569
5 *485:4 0.00759285
6 *485:5 0.00759285
7 *485:6 0.00112404
8 *485:7 0.00107419
9 *485:8 0.00184518
10 *485:9 0.00184518

*RES
1 *485:8 *1104:Y 4
2 *485:8 *485:9 1.5
3 *485:4 *485:9 4
4 *485:5 *485:4 2.64
5 *485:7 *485:5 4
6 *485:7 *485:6 0.9
7 *485:3 *485:6 0.24
8 *485:3 *485:2 1.8
9 *1103:C *485:2 4
*END

*D_NET *486 0.0218276

*CONN
*I *1109:Y O *C 270 91.5 *L 0 *D AOI21X1
*I *1105:B I *C 174 91.5 *L 0.033 *D OAI21X1

*CAP
1 *1109:Y 0.00028335
2 *1105:B 0.00040294
3 *486:2 0.00047919
4 *486:3 0.00047919
5 *486:4 0.00047919
6 *486:5 0.00047919
7 *486:6 0.00753211
8 *486:7 0.00753211
9 *486:8 0.00057295
10 *486:6 *11:19 0.00119579
11 *486:7 *11:20 0.00119579
12 *486:6 *497:2 0.00059789
13 *486:7 *497:3 0.00059789

*RES
1 *486:5 *1109:Y 4
2 *486:5 *486:4 0.3
3 *486:6 *486:4 4
4 *486:7 *486:6 3.04
5 *486:2 *486:7 4
6 *486:3 *486:2 0.3
7 *1105:B *486:8 0.465
8 *486:8 *486:3 4
*END

*D_NET *487 0.015464

*CONN
*I *1106:Y O *C 106.8 94.5 *L 0 *D OAI21X1
*I *1105:C I *C 169.2 88.5 *L 0.0216 *D OAI21X1

*CAP
1 *1106:Y 0.00087707
2 *1105:C 0.00028335
3 *487:2 0.00445251
4 *487:3 0.00445251
5 *487:4 0.00050503
6 *487:5 0.00050503
7 *487:6 0.00104708
8 *487:7 0.00047494
9 *487:8 0.00047494
10 *487:2 *507:4 0.00119579
11 *487:3 *507:5 0.00119579

*RES
1 *487:5 *1105:C 4
2 *487:5 *487:4 0.3
3 *487:2 *487:4 4
4 *487:3 *487:2 1.76
5 *487:8 *487:3 4
6 *487:8 *487:7 0.3
7 *487:6 *487:7 4
8 *1106:Y *487:6 0.945
*END

*D_NET *488 0.0091235

*CONN
*I *1108:Y O *C 102 55.5 *L 0 *D OAI22X1
*I *1106:A I *C 99.6 94.5 *L 0.0323 *D OAI21X1

*CAP
1 *1108:Y 0.00028335
2 *1106:A 0.00028335
3 *488:2 0.00099428
4 *488:3 0.00104413
5 *488:4 0.00255894
6 *488:5 0.00250909
7 *488:4 *601:21 0.00069061
8 *488:5 *601:22 0.00069061
9 *488:2 *601:23 1.126e-05
10 *488:3 *601:24 1.126e-05
11 *488:2 *601:21 2.331e-05
12 *488:3 *601:22 2.331e-05

*RES
1 *488:5 *1108:Y 4
2 *488:5 *488:4 3
3 *488:3 *488:4 0.24
4 *488:2 *1106:A 4
5 *488:3 *488:2 0.9
*END

*D_NET *489 0.00949688

*CONN
*I *1107:Y O *C 75.6 94.5 *L 0 *D OAI22X1
*I *1106:B I *C 102 91.5 *L 0.033 *D OAI21X1

*CAP
1 *1107:Y 0.00028335
2 *1106:B 0.00028335
3 *489:2 0.00075632
4 *489:3 0.00075632
5 *489:4 0.00047494
6 *489:5 0.00047494
7 *489:6 0.0021377
8 *489:7 0.0021377
9 *489:7 *16:21 0.00059789
10 *489:6 *16:22 0.00059789
11 *489:7 *16:22 0.00049824
12 *489:6 *16:23 0.00049824

*RES
1 *489:3 *1106:B 4
2 *489:3 *489:2 0.6
3 *489:7 *489:2 4
4 *489:6 *489:7 0.88
5 *489:5 *489:6 4
6 *489:4 *1107:Y 4
7 *489:4 *489:5 0.3
*END

*D_NET *490 0.0168432

*CONN
*I *1110:Y O *C 339.6 94.5 *L 0 *D OAI22X1
*I *1109:C I *C 270 97.5 *L 0.0277 *D AOI21X1

*CAP
1 *1110:Y 0.00028335
2 *1109:C 0.00028335
3 *490:2 0.00588147
4 *490:3 0.00588147
5 *490:4 0.00038987
6 *490:5 0.00038987
7 *490:6 0.00047184
8 *490:7 0.00047184
9 *490:2 *510:2 0.00139508
10 *490:3 *510:3 0.00139508

*RES
1 *490:6 *1110:Y 4
2 *490:6 *490:7 0.3
3 *490:2 *490:7 4
4 *490:3 *490:2 2.24
5 *490:5 *490:3 4
6 *490:4 *1109:C 4
7 *490:4 *490:5 0.24
*END

*D_NET *491 0.0129824

*CONN
*I *1115:Y O *C 279.6 151.5 *L 0 *D AOI21X1
*I *1111:B I *C 231.6 151.5 *L 0.033 *D OAI21X1

*CAP
1 *1115:Y 0.00028335
2 *1111:B 0.00124782
3 *491:2 0.00078839
4 *491:3 0.00078839
5 *491:4 0.00141783
6 *491:5 0.00084007
7 *491:6 0.00084007
8 *491:7 0.00338824
9 *491:8 0.00338824

*RES
1 *491:6 *1115:Y 4
2 *491:5 *491:6 0.6
3 *491:8 *491:5 4
4 *491:7 *491:8 1.12
5 *491:3 *491:7 4
6 *491:3 *491:2 0.6
7 *491:4 *491:2 4
8 *1111:B *491:4 1.44
*END

*D_NET *492 0.00922262

*CONN
*I *1112:Y O *C 212.4 115.5 *L 0 *D OAI21X1
*I *1111:C I *C 226.8 148.5 *L 0.0216 *D OAI21X1

*CAP
1 *1112:Y 0.00108662
2 *1111:C 0.00020796
3 *492:2 0.00125663
4 *492:3 0.00314672
5 *492:4 0.00037797
6 *492:5 0.00314672

*RES
1 *492:4 *1111:C 0.24
2 *492:5 *492:4 4
3 *492:3 *492:5 3.3
4 *1112:Y *492:2 1.2
5 *492:2 *492:3 4
*END

*D_NET *493 0.00425904

*CONN
*I *1114:Y O *C 198 115.5 *L 0 *D OAI22X1
*I *1112:A I *C 205.2 115.5 *L 0.0323 *D OAI21X1

*CAP
1 *1114:Y 0.00028335
2 *1112:A 0.00028335
3 *493:2 0.00047494
4 *493:3 0.00047494
5 *493:4 0.00050503
6 *493:5 0.00050503
7 *493:6 0.0008662
8 *493:7 0.0008662

*RES
1 *493:3 *1112:A 4
2 *493:3 *493:2 0.3
3 *493:7 *493:2 4
4 *493:6 *493:7 0.24
5 *493:5 *493:6 4
6 *493:4 *1114:Y 4
7 *493:4 *493:5 0.3
*END

*D_NET *494 0.0229479

*CONN
*I *1113:Y O *C 130.8 154.5 *L 0 *D OAI22X1
*I *1112:B I *C 207.6 118.5 *L 0.033 *D OAI21X1

*CAP
1 *1113:Y 0.00028335
2 *1112:B 0.00028335
3 *494:2 0.00158673
4 *494:3 0.00158673
5 *494:4 0.00708866
6 *494:5 0.00708866
7 *494:6 0.00251523
8 *494:7 0.00251523

*RES
1 *494:3 *1112:B 4
2 *494:3 *494:2 1.5
3 *494:4 *494:2 4
4 *494:7 *1113:Y 4
5 *494:5 *494:4 2.56
6 *494:6 *494:7 2.1
7 *494:6 *494:5 4
*END

*D_NET *495 0.0151395

*CONN
*I *1116:Y O *C 306 115.5 *L 0 *D OAI22X1
*I *1115:C I *C 279.6 157.5 *L 0.0277 *D AOI21X1

*CAP
1 *1116:Y 0.00028335
2 *1115:C 0.00081888
3 *495:2 0.00137241
4 *495:3 0.00137241
5 *495:4 0.00294611
6 *495:5 0.00098889
7 *495:6 0.00294611
8 *495:7 0.00149685
9 *495:8 0.00149685
10 *495:8 *599:61 0.00029895
11 *495:7 *599:58 0.00029895
12 *495:8 *599:58 0.0003986
13 *495:7 *599:59 0.0003986
14 *495:6 *599:52 1.126e-05
15 *495:4 *599:53 1.126e-05

*RES
1 *1115:C *495:5 0.945
2 *495:2 *495:5 4
3 *495:3 *495:2 1.2
4 *495:7 *495:3 4
5 *495:7 *495:8 0.56
6 *495:6 *495:8 4
7 *495:4 *1116:Y 4
8 *495:4 *495:6 3
*END

*D_NET *496 0.0163718

*CONN
*I *1121:Y O *C 279.6 91.5 *L 0 *D AOI21X1
*I *1117:B I *C 214.8 91.5 *L 0.033 *D OAI21X1

*CAP
1 *1121:Y 0.00028335
2 *1117:B 0.00089005
3 *496:2 0.00078839
4 *496:3 0.00078839
5 *496:4 0.00106006
6 *496:5 0.00071879
7 *496:6 0.00071879
8 *496:7 0.00556198
9 *496:8 0.00556198

*RES
1 *496:2 *1121:Y 4
2 *496:3 *496:2 0.6
3 *496:8 *496:3 4
4 *496:7 *496:8 1.84
5 *496:6 *496:7 4
6 *496:6 *496:5 0.6
7 *1117:B *496:4 0.96
8 *496:4 *496:5 4
*END

*D_NET *497 0.00676838

*CONN
*I *1118:Y O *C 195.6 94.5 *L 0 *D OAI21X1
*I *1117:C I *C 210 88.5 *L 0.0216 *D OAI21X1

*CAP
1 *1118:Y 0.00028335
2 *1117:C 0.00028335
3 *497:2 0.00092509
4 *497:3 0.00092509
5 *497:4 0.00050503
6 *497:5 0.00050503
7 *497:6 0.00047494
8 *497:7 0.00047494
9 *497:2 *486:6 0.00059789
10 *497:3 *486:7 0.00059789
11 *497:2 *506:4 0.00059789
12 *497:3 *506:5 0.00059789

*RES
1 *497:7 *1117:C 4
2 *497:7 *497:6 0.3
3 *497:2 *497:6 4
4 *497:3 *497:2 0.48
5 *497:5 *497:3 4
6 *497:5 *497:4 0.3
7 *497:4 *1118:Y 4
*END

*D_NET *498 0.0097138

*CONN
*I *1120:Y O *C 193.2 55.5 *L 0 *D OAI22X1
*I *1118:A I *C 188.4 94.5 *L 0.0323 *D OAI21X1

*CAP
1 *1120:Y 0.00028335
2 *1118:A 0.00028335
3 *498:2 0.00321302
4 *498:3 0.00348273
5 *498:4 0.00060973
6 *498:2 *601:25 0.00092081
7 *498:3 *601:26 0.00092081

*RES
1 *498:4 *1120:Y 4
2 *498:3 *498:4 0.48
3 *498:2 *1118:A 4
4 *498:3 *498:2 3.9
*END

*D_NET *499 0.0162135

*CONN
*I *1119:Y O *C 130.8 94.5 *L 0 *D OAI22X1
*I *1118:B I *C 190.8 91.5 *L 0.033 *D OAI21X1

*CAP
1 *1119:Y 0.00028335
2 *1118:B 0.00061092
3 *499:2 0.00104589
4 *499:3 0.00104589
5 *499:4 0.00084007
6 *499:5 0.00084007
7 *499:6 0.00538321
8 *499:7 0.00078093
9 *499:8 0.00538321

*RES
1 *499:7 *1118:B 0.705
2 *499:4 *499:7 4
3 *499:5 *499:4 0.6
4 *499:8 *499:5 4
5 *499:6 *499:8 1.76
6 *499:3 *499:6 4
7 *499:3 *499:2 0.9
8 *499:2 *1119:Y 4
*END

*D_NET *500 0.0212932

*CONN
*I *1122:Y O *C 339.6 55.5 *L 0 *D OAI22X1
*I *1121:C I *C 279.6 97.5 *L 0.0277 *D AOI21X1

*CAP
1 *1122:Y 0.00028335
2 *1121:C 0.00144278
3 *500:2 0.00072001
4 *500:3 0.00072001
5 *500:4 0.00295616
6 *500:5 0.00295616
7 *500:6 0.00445687
8 *500:7 0.00445687
9 *500:8 0.00161279
10 *500:4 *602:47 0.00084408
11 *500:5 *602:48 0.00084408

*RES
1 *500:5 *1122:Y 4
2 *500:5 *500:4 3.6
3 *500:6 *500:4 4
4 *500:7 *500:6 1.44
5 *500:3 *500:7 4
6 *500:3 *500:2 0.6
7 *1121:C *500:8 1.665
8 *500:8 *500:2 4
*END

*D_NET *501 0.0307193

*CONN
*I *1127:Y O *C 255.6 298.5 *L 0 *D AOI21X1
*I *1123:B I *C 128.4 271.5 *L 0.033 *D OAI21X1

*CAP
1 *1127:Y 0.00043298
2 *1123:B 0.0006239
3 *501:2 0.00098815
4 *501:3 0.00098815
5 *501:4 0.00184027
6 *501:5 0.00184027
7 *501:6 0.0095
8 *501:7 0.0095
9 *501:8 0.00060299
10 *501:9 0.00079391
11 *501:6 *601:76 0.00060323
12 *501:7 *601:74 0.00060323
13 *501:6 *601:74 0.00060323
14 *501:7 *601:75 0.00060323
15 *501:6 *512:4 0.00059789
16 *501:7 *512:5 0.00059789

*RES
1 *1123:B *501:9 0.72
2 *501:3 *501:9 4
3 *501:3 *501:2 0.9
4 *501:7 *501:2 4
5 *501:7 *501:6 3.84
6 *501:5 *501:6 4
7 *501:5 *501:4 1.8
8 *501:8 *501:4 4
9 *501:8 *1127:Y 0.465
*END

*D_NET *502 0.00137256

*CONN
*I *1124:Y O *C 121.2 274.5 *L 0 *D OAI21X1
*I *1123:C I *C 123.6 268.5 *L 0.0216 *D OAI21X1

*CAP
1 *1124:Y 0.00023916
2 *1123:C 0.00023916
3 *502:2 0.00044712
4 *502:3 0.00044712

*RES
1 *1123:C *502:3 0.27
2 *502:2 *502:3 0.24
3 *502:2 *1124:Y 0.27
*END

*D_NET *503 0.00661378

*CONN
*I *1126:Y O *C 104.4 274.5 *L 0 *D OAI22X1
*I *1124:A I *C 114 274.5 *L 0.0323 *D OAI21X1

*CAP
1 *1126:Y 0.00028335
2 *1124:A 0.00028335
3 *503:2 0.00143679
4 *503:3 0.00143679
5 *503:4 0.00074668
6 *503:5 0.00074668
7 *503:6 0.00084007
8 *503:7 0.00084007

*RES
1 *503:5 *1124:A 4
2 *503:5 *503:4 0.6
3 *503:2 *503:4 4
4 *503:3 *503:2 0.32
5 *503:7 *503:3 4
6 *503:6 *503:7 0.6
7 *1126:Y *503:6 4
*END

*D_NET *504 0.0123874

*CONN
*I *1125:Y O *C 73.2 274.5 *L 0 *D OAI22X1
*I *1124:B I *C 116.4 271.5 *L 0.033 *D OAI21X1

*CAP
1 *1125:Y 0.00028335
2 *1124:B 0.00041594
3 *504:2 0.00078215
4 *504:3 0.00078215
5 *504:4 0.00432294
6 *504:5 0.00432294
7 *504:6 0.00058595
8 *504:7 0.000446
9 *504:8 0.000446

*RES
1 *504:6 *1124:B 0.48
2 *504:3 *504:6 4
3 *504:3 *504:2 0.6
4 *504:4 *504:2 4
5 *504:5 *504:4 1.28
6 *504:8 *504:5 4
7 *504:7 *504:8 0.3
8 *1125:Y *504:7 4
*END

*D_NET *505 0.0268903

*CONN
*I *1128:Y O *C 318 235.5 *L 0 *D OAI22X1
*I *1127:C I *C 255.6 292.5 *L 0.0277 *D AOI21X1

*CAP
1 *1128:Y 0.00028335
2 *1127:C 0.00028335
3 *505:2 0.0017418
4 *505:3 0.0017418
5 *505:4 0.00429185
6 *505:5 0.00429185
7 *505:6 0.0045373
8 *505:7 0.0045373
9 *505:7 *37:5 0.00259087
10 *505:6 *37:6 0.00259087

*RES
1 *505:4 *1127:C 4
2 *505:5 *505:4 4.2
3 *505:6 *505:5 4
4 *505:6 *505:7 2.08
5 *505:2 *505:7 4
6 *505:3 *1128:Y 4
7 *505:3 *505:2 1.5
*END

*D_NET *506 0.0258869

*CONN
*I *1134:Y O *C 258 118.5 *L 0 *D AOI21X1
*I *1129:B I *C 164.4 91.5 *L 0.033 *D OAI21X1

*CAP
1 *1134:Y 0.0020667
2 *1129:B 0.00018198
3 *506:2 0.00286357
4 *506:3 0.00286357
5 *506:4 0.00655826
6 *506:5 0.00655826
7 *506:6 0.00035199
8 *506:7 0.00050503
9 *506:8 0.00050503
10 *506:9 0.00223671
11 *506:4 *497:2 0.00059789
12 *506:5 *497:3 0.00059789

*RES
1 *506:9 *1134:Y 2.385
2 *506:2 *506:9 4
3 *506:3 *506:2 3
4 *506:4 *506:3 4
5 *506:5 *506:4 2.24
6 *506:8 *506:5 4
7 *506:8 *506:7 0.3
8 *1129:B *506:6 0.21
9 *506:6 *506:7 4
*END

*D_NET *507 0.0179372

*CONN
*I *1130:Y O *C 109.2 115.5 *L 0 *D OAI21X1
*I *1129:C I *C 159.6 88.5 *L 0.0216 *D OAI21X1

*CAP
1 *1130:Y 0.00103984
2 *1129:C 0.00081888
3 *507:2 0.00229079
4 *507:3 0.00229079
5 *507:4 0.0017723
6 *507:5 0.0017723
7 *507:6 0.00120985
8 *507:7 0.00098889
9 *507:8 0.00078413
10 *507:9 0.00078413
11 *507:4 0.00089684
12 *507:5 0.00089684
13 *507:4 *487:2 0.00119579
14 *507:5 *487:3 0.00119579

*RES
1 *507:7 *1129:C 0.945
2 *507:8 *507:7 4
3 *507:8 *507:9 0.6
4 *507:4 *507:9 4
5 *507:5 *507:4 0.96
6 *507:3 *507:5 4
7 *507:3 *507:2 2.1
8 *507:6 *507:2 4
9 *1130:Y *507:6 1.2
*END

*D_NET *508 0.00344562

*CONN
*I *1133:Y O *C 94.8 115.5 *L 0 *D OAI22X1
*I *1130:A I *C 102 115.5 *L 0.0323 *D OAI21X1

*CAP
1 *1133:Y 0.00028335
2 *1130:A 0.00028335
3 *508:2 0.00047494
4 *508:3 0.00096452
5 *508:4 0.00096452
6 *508:5 0.00047494

*RES
1 *508:5 *1130:A 4
2 *508:4 *508:5 0.3
3 *508:3 *508:4 0.72
4 *508:3 *508:2 0.3
5 *508:2 *1133:Y 4
*END

*D_NET *509 0.00877204

*CONN
*I *1131:Y O *C 75.6 115.5 *L 0 *D OAI22X1
*I *1130:B I *C 104.4 118.5 *L 0.033 *D OAI21X1

*CAP
1 *1131:Y 0.00028335
2 *1130:B 0.00028335
3 *509:2 0.00081422
4 *509:3 0.00081422
5 *509:4 0.00280926
6 *509:5 0.00280926
7 *509:6 0.00047919
8 *509:7 0.00047919

*RES
1 *509:2 *1130:B 4
2 *509:3 *509:2 0.6
3 *509:4 *509:3 4
4 *509:5 *509:4 0.96
5 *509:7 *509:5 4
6 *509:7 *509:6 0.3
7 *509:6 *1131:Y 4
*END

*D_NET *510 0.017204

*CONN
*I *1135:Y O *C 306 94.5 *L 0 *D OAI22X1
*I *1134:C I *C 258 112.5 *L 0.0277 *D AOI21X1

*CAP
1 *1135:Y 0.00028335
2 *1134:C 0.00028335
3 *510:2 0.00269607
4 *510:3 0.00269607
5 *510:4 0.00127426
6 *510:5 0.00132411
7 *510:6 0.00038987
8 *510:7 0.00084007
9 *510:8 0.00084007
10 *510:2 *302:22 0.00119579
11 *510:3 *302:23 0.00119579
12 *510:2 *302:23 0.00069754
13 *510:3 *302:24 0.00069754
14 *510:2 *490:2 0.00139508
15 *510:3 *490:3 0.00139508

*RES
1 *510:8 *1135:Y 4
2 *510:8 *510:7 0.6
3 *510:2 *510:7 4
4 *510:3 *510:2 1.52
5 *510:6 *510:3 4
6 *510:5 *510:6 0.24
7 *510:4 *1134:C 4
8 *510:5 *510:4 1.2
*END

*D_NET *511 0.0228445

*CONN
*I *1141:Y O *C 279.6 331.5 *L 0 *D AOI21X1
*I *1137:B I *C 236.4 271.5 *L 0.033 *D OAI21X1

*CAP
1 *1141:Y 0.00028335
2 *1137:B 0.00028335
3 *511:2 0.00047184
4 *511:3 0.00047184
5 *511:4 0.00598601
6 *511:5 0.00598601
7 *511:6 0.00468107
8 *511:7 0.00468107

*RES
1 *511:2 *1141:Y 4
2 *511:3 *511:2 0.3
3 *511:6 *511:3 4
4 *511:7 *511:6 1.44
5 *511:4 *511:7 4
6 *511:5 *1137:B 4
7 *511:5 *511:4 5.7
*END

*D_NET *512 0.00992902

*CONN
*I *1138:Y O *C 210 274.5 *L 0 *D OAI21X1
*I *1137:C I *C 231.6 268.5 *L 0.0216 *D OAI21X1

*CAP
1 *1138:Y 0.00028335
2 *1137:C 0.00023916
3 *512:2 0.00047919
4 *512:3 0.00047919
5 *512:4 0.00136717
6 *512:5 0.00136717
7 *512:6 0.00109756
8 *512:7 0.00136727
9 *512:8 0.00037797
10 *512:9 0.00044712
11 *512:10 0.0007489
12 *512:11 0.00047919
13 *512:4 *501:6 0.00059789
14 *512:5 *501:7 0.00059789

*RES
1 *1137:C *512:9 0.27
2 *512:8 *512:9 0.24
3 *512:11 *512:8 4
4 *512:10 *512:11 0.3
5 *512:7 *512:10 0.48
6 *512:7 *512:6 0.9
7 *512:4 *512:6 4
8 *512:5 *512:4 0.48
9 *512:2 *512:5 4
10 *512:3 *512:2 0.3
11 *1138:Y *512:3 4
*END

*D_NET *513 0.00488044

*CONN
*I *1140:Y O *C 195.6 274.5 *L 0 *D OAI22X1
*I *1138:A I *C 202.8 274.5 *L 0.0323 *D OAI21X1

*CAP
1 *1140:Y 0.00028335
2 *1138:A 0.00028335
3 *513:2 0.00050503
4 *513:3 0.00050503
5 *513:4 0.00047919
6 *513:5 0.00047919
7 *513:6 0.00117265
8 *513:7 0.00117265

*RES
1 *513:3 *1138:A 4
2 *513:3 *513:2 0.3
3 *513:7 *513:2 4
4 *513:6 *513:7 0.24
5 *513:4 *513:6 4
6 *513:5 *513:4 0.3
7 *1140:Y *513:5 4
*END

*D_NET *514 0.0225197

*CONN
*I *1139:Y O *C 152.4 235.5 *L 0 *D OAI22X1
*I *1138:B I *C 205.2 271.5 *L 0.033 *D OAI21X1

*CAP
1 *1139:Y 0.00028335
2 *1138:B 0.00019498
3 *514:2 0.00165503
4 *514:3 0.00165503
5 *514:4 0.00251523
6 *514:5 0.00251523
7 *514:6 0.00036499
8 *514:7 0.00308059
9 *514:8 0.00308059
10 *514:8 *598:87 0.00149473
11 *514:7 *598:88 0.00149473
12 *514:8 *37:3 0.00209263
13 *514:7 *37:4 0.00209263

*RES
1 *514:6 *1138:B 0.225
2 *514:4 *514:6 4
3 *514:5 *514:4 2.1
4 *514:8 *514:5 4
5 *514:7 *514:8 1.68
6 *514:2 *514:7 4
7 *514:3 *1139:Y 4
8 *514:3 *514:2 1.5
*END

*D_NET *515 0.00080588

*CONN
*I *657:A I *C 58.8 298.5 *L 0.0161 *D BUFX2
*I *1182:Y O *C 54 298.5 *L 0 *D NAND2X1

*CAP
1 *657:A 0.00040294
2 *1182:Y 0.00040294

*RES
1 *1182:Y *657:A 0.465
*END

*D_NET *516 0.00956966

*CONN
*I *656:A I *C 61.2 271.5 *L 0.0161 *D BUFX2
*I *1186:Y O *C 46.8 298.5 *L 0 *D NAND2X1

*CAP
1 *656:A 0.00028335
2 *1186:Y 0.00020796
3 *516:2 0.00043431
4 *516:3 0.00043431
5 *516:4 0.00216898
6 *516:5 0.00216898
7 *516:6 0.00128649
8 *516:7 0.00128649
9 *516:8 0.00037797
10 *516:4 *14:44 0.00046041
11 *516:5 *14:43 0.00046041

*RES
1 *516:5 *656:A 4
2 *516:5 *516:4 2.4
3 *516:6 *516:4 4
4 *516:7 *516:6 0.4
5 *516:3 *516:7 4
6 *516:3 *516:2 0.3
7 *516:8 *516:2 4
8 *1186:Y *516:8 0.24
*END

*D_NET *517 0.0252883

*CONN
*I *1142:Y O *C 301.2 235.5 *L 0 *D OAI22X1
*I *1141:C I *C 279.6 337.5 *L 0.0277 *D AOI21X1

*CAP
1 *1142:Y 0.00028335
2 *1141:C 0.00124782
3 *517:2 0.0007713
4 *517:3 0.00265507
5 *517:4 0.00265507
6 *517:5 0.00559832
7 *517:6 0.00515412
8 *517:7 0.00075712
9 *517:8 0.00125931
10 *517:9 0.00141783
11 *517:10 0.00071331
12 *517:8 *575:2 6.6e-06
13 *517:2 *575:3 6.6e-06
14 *517:6 *575:2 0.00138122
15 *517:5 *575:3 0.00138122

*RES
1 *1141:C *517:9 1.44
2 *517:10 *517:9 4
3 *517:7 *517:10 0.6
4 *517:4 *517:7 0.24
5 *517:3 *517:4 2.7
6 *517:3 *517:6 0.24
7 *517:5 *517:6 6.3
8 *517:5 *517:8 0.72
9 *517:2 *1142:Y 4
10 *517:2 *517:8 0.6
*END

*D_NET *518 0.0387258

*CONN
*I *1147:Y O *C 279.6 238.5 *L 0 *D AOI21X1
*I *1143:B I *C 128.4 211.5 *L 0.033 *D OAI21X1

*CAP
1 *1147:Y 0.00028335
2 *1143:B 0.00041594
3 *518:2 0.0021501
4 *518:3 0.0021501
5 *518:4 0.00117511
6 *518:5 0.00117511
7 *518:6 0.0131032
8 *518:7 0.0131032
9 *518:8 0.00058595
10 *518:6 *591:10 0.00229192
11 *518:7 *591:11 0.00229192

*RES
1 *518:4 *1147:Y 4
2 *518:5 *518:4 0.9
3 *518:6 *518:5 4
4 *518:7 *518:6 4.88
5 *518:2 *518:7 4
6 *518:3 *518:2 1.8
7 *1143:B *518:8 0.48
8 *518:8 *518:3 4
*END

*D_NET *519 0.00729264

*CONN
*I *1144:Y O *C 99.6 214.5 *L 0 *D OAI21X1
*I *1143:C I *C 123.6 208.5 *L 0.0216 *D OAI21X1

*CAP
1 *1144:Y 0.00028335
2 *1143:C 0.00028335
3 *519:2 0.00047919
4 *519:3 0.00047919
5 *519:4 0.00050503
6 *519:5 0.00050503
7 *519:6 0.00237875
8 *519:7 0.00237875

*RES
1 *519:5 *1143:C 4
2 *519:5 *519:4 0.3
3 *519:7 *519:4 4
4 *519:6 *519:7 0.8
5 *519:3 *519:6 4
6 *519:3 *519:2 0.3
7 *519:2 *1144:Y 4
*END

*D_NET *520 0.0133876

*CONN
*I *1146:Y O *C 97.2 154.5 *L 0 *D OAI22X1
*I *1144:A I *C 92.4 214.5 *L 0.0323 *D OAI21X1

*CAP
1 *1146:Y 0.00028335
2 *1144:A 0.00028335
3 *520:2 0.00038987
4 *520:3 0.00080813
5 *520:4 0.00080813
6 *520:5 0.00543229
7 *520:6 0.00538244

*RES
1 *520:6 *1146:Y 4
2 *520:6 *520:5 5.4
3 *520:4 *520:5 0.24
4 *520:4 *520:3 0.6
5 *520:2 *1144:A 4
6 *520:2 *520:3 0.24
*END

*D_NET *521 0.0095898

*CONN
*I *1145:Y O *C 63.6 214.5 *L 0 *D OAI22X1
*I *1144:B I *C 94.8 211.5 *L 0.033 *D OAI21X1

*CAP
1 *1145:Y 0.00028335
2 *1144:B 0.00103984
3 *521:2 0.00084006
4 *521:3 0.00084006
5 *521:4 0.00220913
6 *521:5 0.00220913
7 *521:6 0.00047919
8 *521:7 0.00047919
9 *521:8 0.00120985

*RES
1 *521:8 *1144:B 1.2
2 *521:7 *521:8 4
3 *521:6 *521:7 0.3
4 *521:5 *521:6 4
5 *521:4 *521:5 0.64
6 *521:3 *521:4 4
7 *521:3 *521:2 0.6
8 *521:2 *1145:Y 4
*END

*D_NET *522 0.0183624

*CONN
*I *1148:Y O *C 301.2 175.5 *L 0 *D OAI22X1
*I *1147:C I *C 279.6 232.5 *L 0.0277 *D AOI21X1

*CAP
1 *1148:Y 0.00028335
2 *1147:C 0.00040294
3 *522:2 0.0021944
4 *522:3 0.0021944
5 *522:4 0.00057295
6 *522:5 0.00243449
7 *522:6 0.00243449
8 *522:7 0.00246476
9 *522:8 0.00246476
10 *522:7 *599:67 0.00069061
11 *522:8 *599:68 0.00069061
12 *522:7 *599:68 7.673e-05
13 *522:8 *599:69 7.673e-05
14 *522:5 *6:25 0.00038367
15 *522:6 *6:26 0.00038367
16 *522:5 *6:26 7.673e-05
17 *522:6 *6:27 7.673e-05
18 *522:5 *6:27 0.0002302
19 *522:6 *6:21 0.0002302

*RES
1 *522:8 *1148:Y 4
2 *522:8 *522:7 3
3 *522:2 *522:7 4
4 *522:3 *522:2 0.56
5 *522:6 *522:3 4
6 *522:6 *522:5 2.7
7 *1147:C *522:4 0.465
8 *522:4 *522:5 4
*END

*D_NET *523 0.00864966

*CONN
*I *1153:Y O *C 265.2 178.5 *L 0 *D AOI21X1
*I *1149:B I *C 236.4 178.5 *L 0.033 *D OAI21X1

*CAP
1 *1153:Y 0.00028335
2 *1149:B 0.00020796
3 *523:2 0.00045335
4 *523:3 0.00045335
5 *523:4 0.00047919
6 *523:5 0.00047919
7 *523:6 0.00295765
8 *523:7 0.00295765
9 *523:8 0.00037797

*RES
1 *523:3 *1153:Y 4
2 *523:3 *523:2 0.3
3 *523:6 *523:2 4
4 *523:7 *523:6 0.88
5 *523:4 *523:7 4
6 *523:5 *523:4 0.3
7 *523:8 *523:5 4
8 *1149:B *523:8 0.24
*END

*D_NET *524 0.00732406

*CONN
*I *1150:Y O *C 212.4 175.5 *L 0 *D OAI21X1
*I *1149:C I *C 231.6 181.5 *L 0.0216 *D OAI21X1

*CAP
1 *1150:Y 0.00042529
2 *1149:C 0.00028335
3 *524:2 0.00102381
4 *524:3 0.00102381
5 *524:4 0.0005953
6 *524:5 0.00050503
7 *524:6 0.00050503
8 *524:7 0.00148122
9 *524:8 0.00148122

*RES
1 *524:5 *1149:C 4
2 *524:5 *524:6 0.3
3 *524:8 *524:6 4
4 *524:7 *524:8 0.48
5 *524:2 *524:7 4
6 *524:3 *524:2 0.9
7 *524:4 *524:3 4
8 *1150:Y *524:4 0.48
*END

*D_NET *525 0.00909214

*CONN
*I *1152:Y O *C 205.2 214.5 *L 0 *D OAI22X1
*I *1150:A I *C 205.2 175.5 *L 0.0323 *D OAI21X1

*CAP
1 *1152:Y 0.00028335
2 *1150:A 0.00028335
3 *525:2 0.00355561
4 *525:3 0.00355561
5 *525:3 *599:27 9.324e-05
6 *525:2 *599:28 9.324e-05
7 *525:3 *599:31 7.673e-05
8 *525:2 *599:32 7.673e-05
9 *525:3 *599:32 0.00053714
10 *525:2 *599:33 0.00053714

*RES
1 *525:3 *1152:Y 4
2 *525:2 *1150:A 4
3 *525:2 *525:3 3.9
*END

*D_NET *526 0.0154124

*CONN
*I *1151:Y O *C 157.2 175.5 *L 0 *D OAI22X1
*I *1150:B I *C 207.6 178.5 *L 0.033 *D OAI21X1

*CAP
1 *1151:Y 0.00028335
2 *1150:B 0.00028335
3 *526:2 0.00072427
4 *526:3 0.00072427
5 *526:4 0.00141983
6 *526:5 0.00141983
7 *526:6 0.00151373
8 *526:7 0.003765
9 *526:8 0.00155517
10 *526:9 0.00372356

*RES
1 *526:4 *1150:B 4
2 *526:5 *526:4 1.2
3 *526:9 *526:5 4
4 *526:7 *526:9 1.28
5 *526:7 *526:8 0.1
6 *526:6 *526:8 0.4
7 *526:3 *526:6 4
8 *526:3 *526:2 0.6
9 *1151:Y *526:2 4
*END

*D_NET *527 0.0217283

*CONN
*I *1154:Y O *C 339.6 154.5 *L 0 *D OAI22X1
*I *1153:C I *C 265.2 172.5 *L 0.0277 *D AOI21X1

*CAP
1 *1154:Y 0.00028335
2 *1153:C 0.00028335
3 *527:2 0.000765
4 *527:3 0.000765
5 *527:4 0.0014843
6 *527:5 0.0014843
7 *527:6 0.00631338
8 *527:7 0.00631338
9 *527:6 *575:4 0.00089684
10 *527:7 *575:5 0.00089684
11 *527:6 *575:8 0.00109614
12 *527:7 *575:9 0.00109614
13 *527:6 *575:6 2.513e-05
14 *527:7 *575:7 2.513e-05

*RES
1 *527:5 *1154:Y 4
2 *527:5 *527:4 1.2
3 *527:6 *527:4 4
4 *527:7 *527:6 2.48
5 *527:3 *527:7 4
6 *527:3 *527:2 0.6
7 *1153:C *527:2 4
*END

*D_NET *528 0.0196007

*CONN
*I *1159:Y O *C 258 31.5 *L 0 *D AOI21X1
*I *1155:B I *C 174 31.5 *L 0.033 *D OAI21X1

*CAP
1 *1159:Y 0.00040294
2 *1155:B 0.00040294
3 *528:2 0.00043865
4 *528:3 0.00043865
5 *528:4 0.00631846
6 *528:5 0.00631846
7 *528:6 0.00057295
8 *528:7 0.00039624
9 *528:8 0.00039624
10 *528:9 0.00057295
11 *528:4 *592:34 0.0003986
12 *528:5 *592:35 0.0003986
13 *528:4 *592:35 0.00119579
14 *528:5 *592:36 0.00119579
15 *528:8 *592:37 7.673e-05
16 *528:7 *592:38 7.673e-05

*RES
1 *528:9 *1159:Y 0.465
2 *528:3 *528:9 4
3 *528:3 *528:2 0.3
4 *528:4 *528:2 4
5 *528:5 *528:4 2.48
6 *528:8 *528:5 4
7 *528:7 *528:8 0.3
8 *1155:B *528:6 0.465
9 *528:6 *528:7 4
*END

*D_NET *529 0.0200732

*CONN
*I *1156:Y O *C 85.2 34.5 *L 0 *D OAI21X1
*I *1155:C I *C 169.2 28.5 *L 0.0216 *D OAI21X1

*CAP
1 *1156:Y 0.00023916
2 *1155:C 0.00028335
3 *529:2 0.0076651
4 *529:3 0.0076651
5 *529:4 0.00044712
6 *529:5 0.00037797
7 *529:6 0.00100777
8 *529:7 0.00100777
9 *529:8 0.00068993
10 *529:9 0.00068993

*RES
1 *529:9 *1155:C 4
2 *529:8 *529:9 0.6
3 *529:2 *529:8 4
4 *529:3 *529:2 2.72
5 *529:7 *529:3 4
6 *529:7 *529:6 0.9
7 *529:5 *529:6 4
8 *529:4 *1156:Y 0.27
9 *529:4 *529:5 0.24
*END

*D_NET *530 0.00552854

*CONN
*I *1158:Y O *C 66 34.5 *L 0 *D OAI22X1
*I *1156:A I *C 78 34.5 *L 0.0323 *D OAI21X1

*CAP
1 *1158:Y 0.00028335
2 *1156:A 0.000238
3 *530:2 0.000808
4 *530:3 0.00151744
5 *530:4 0.00040801
6 *530:5 0.00078215
7 *530:6 0.00149159

*RES
1 *530:4 *1156:A 0.24
2 *530:2 *530:4 4
3 *530:3 *530:2 0.6
4 *530:6 *530:3 0.96
5 *530:6 *530:5 0.6
6 *530:5 *1158:Y 4
*END

*D_NET *531 0.00824182

*CONN
*I *1157:Y O *C 66 55.5 *L 0 *D OAI22X1
*I *1156:B I *C 80.4 31.5 *L 0.033 *D OAI21X1

*CAP
1 *1157:Y 0.00028335
2 *1156:B 0.00065393
3 *531:2 0.0011419
4 *531:3 0.00163148
5 *531:4 0.0020984
6 *531:5 0.00160882
7 *531:6 0.00082394

*RES
1 *531:6 *1156:B 0.72
2 *531:5 *531:6 4
3 *531:5 *531:4 1.5
4 *531:3 *531:4 0.72
5 *531:3 *531:2 0.9
6 *531:2 *1157:Y 4
*END

*D_NET *532 0.02126

*CONN
*I *1160:Y O *C 346.8 34.5 *L 0 *D OAI22X1
*I *1159:C I *C 258 37.5 *L 0.0277 *D AOI21X1

*CAP
1 *1160:Y 0.00028335
2 *1159:C 0.00028335
3 *532:2 0.00044166
4 *532:3 0.00044166
5 *532:4 0.00641344
6 *532:5 0.00641344
7 *532:6 0.00038673
8 *532:7 0.00038673
9 *532:4 *598:43 5.829e-05
10 *532:5 *598:44 5.829e-05
11 *532:4 *598:53 0.00059789
12 *532:5 *598:54 0.00059789
13 *532:4 *598:54 0.00139508
14 *532:5 *598:55 0.00139508
15 *532:4 *598:37 6.78e-06
16 *532:5 *598:38 6.78e-06
17 *532:4 *599:38 0.00059789
18 *532:5 *599:39 0.00059789
19 *532:4 *599:39 0.0003986
20 *532:5 *599:48 0.0003986
21 *532:4 *599:40 5.027e-05
22 *532:5 *599:41 5.027e-05

*RES
1 *532:7 *1160:Y 4
2 *532:6 *532:7 0.24
3 *532:4 *532:6 4
4 *532:5 *532:4 2.88
5 *532:3 *532:5 4
6 *532:2 *1159:C 4
7 *532:3 *532:2 0.3
*END

*D_NET *533 0.013285

*CONN
*I *1165:Y O *C 262.8 151.5 *L 0 *D AOI21X1
*I *1161:B I *C 226.8 178.5 *L 0.033 *D OAI21X1

*CAP
1 *1165:Y 0.00102686
2 *1161:B 0.00040294
3 *533:2 0.00136433
4 *533:3 0.00136433
5 *533:4 0.00057295
6 *533:5 0.00173256
7 *533:6 0.00173256
8 *533:7 0.0019458
9 *533:8 0.00119687
10 *533:9 0.0019458

*RES
1 *533:8 *1165:Y 1.185
2 *533:3 *533:8 4
3 *533:3 *533:2 1.2
4 *533:9 *533:2 4
5 *533:7 *533:9 0.64
6 *533:5 *533:7 4
7 *533:5 *533:6 1.5
8 *533:4 *533:6 4
9 *1161:B *533:4 0.465
*END

*D_NET *534 0.00680286

*CONN
*I *1162:Y O *C 202.8 175.5 *L 0 *D OAI21X1
*I *1161:C I *C 222 181.5 *L 0.0216 *D OAI21X1

*CAP
1 *1162:Y 0.00028335
2 *1161:C 0.00063326
3 *534:2 0.00050503
4 *534:3 0.00050503
5 *534:4 0.00080327
6 *534:5 0.00050503
7 *534:6 0.00050503
8 *534:7 0.00103319
9 *534:8 0.00103319
10 *534:8 *13:32 0.00049824
11 *534:7 *13:33 0.00049824

*RES
1 *534:4 *1161:C 0.72
2 *534:6 *534:4 4
3 *534:5 *534:6 0.3
4 *534:8 *534:5 4
5 *534:7 *534:8 0.4
6 *534:2 *534:7 4
7 *534:3 *534:2 0.3
8 *1162:Y *534:3 4
*END

*D_NET *535 0.00560872

*CONN
*I *1164:Y O *C 198 154.5 *L 0 *D OAI22X1
*I *1162:A I *C 195.6 175.5 *L 0.0323 *D OAI21X1

*CAP
1 *1164:Y 0.00028335
2 *1162:A 0.00028335
3 *535:2 0.002351
4 *535:3 0.00230115
5 *535:4 0.00038987

*RES
1 *535:3 *1164:Y 4
2 *535:3 *535:2 2.1
3 *535:4 *535:2 0.24
4 *1162:A *535:4 4
*END

*D_NET *536 0.0202356

*CONN
*I *1163:Y O *C 130.8 175.5 *L 0 *D OAI22X1
*I *1162:B I *C 198 178.5 *L 0.033 *D OAI21X1

*CAP
1 *1163:Y 0.00028335
2 *1162:B 0.00080588
3 *536:2 0.00117511
4 *536:3 0.00117511
5 *536:4 0.00151014
6 *536:5 0.00151014
7 *536:6 0.00440701
8 *536:7 0.00097589
9 *536:8 0.00440701
10 *536:8 *11:37 0.00199298
11 *536:6 *11:38 0.00199298

*RES
1 *536:7 *1162:B 0.93
2 *536:3 *536:7 4
3 *536:3 *536:2 0.9
4 *536:8 *536:2 4
5 *536:6 *536:8 1.92
6 *536:5 *536:6 4
7 *536:4 *536:5 1.2
8 *1163:Y *536:4 4
*END

*D_NET *537 0.0113582

*CONN
*I *1166:Y O *C 296.4 154.5 *L 0 *D OAI22X1
*I *1165:C I *C 262.8 157.5 *L 0.0277 *D AOI21X1

*CAP
1 *1166:Y 0.00028335
2 *1165:C 0.00028335
3 *537:2 0.000446
4 *537:3 0.000446
5 *537:4 0.0006866
6 *537:5 0.0006866
7 *537:6 0.00271462
8 *537:7 0.00271462
9 *537:7 *598:69 9.965e-05
10 *537:6 *598:70 9.965e-05
11 *537:7 *598:70 0.00129543
12 *537:6 *598:71 0.00129543
13 *537:5 *598:72 7.673e-05
14 *537:4 *598:60 7.673e-05
15 *537:5 *598:60 7.673e-05
16 *537:4 *598:61 7.673e-05

*RES
1 *537:4 *1166:Y 4
2 *537:4 *537:5 0.6
3 *537:7 *537:5 4
4 *537:6 *537:7 1.12
5 *537:2 *537:6 4
6 *537:3 *537:2 0.3
7 *1165:C *537:3 4
*END

*D_NET *538 0.0176864

*CONN
*I *1171:Y O *C 289.2 31.5 *L 0 *D AOI21X1
*I *1167:B I *C 214.8 31.5 *L 0.033 *D OAI21X1

*CAP
1 *1171:Y 0.00028335
2 *1167:B 0.00311954
3 *538:2 0.00070088
4 *538:3 0.00070088
5 *538:4 0.00070088
6 *538:5 0.00070088
7 *538:6 0.00309874
8 *538:7 0.00309874
9 *538:8 0.00328955
10 *538:6 *548:2 0.00099649
11 *538:7 *548:3 0.00099649

*RES
1 *538:4 *1171:Y 4
2 *538:5 *538:4 0.6
3 *538:6 *538:5 4
4 *538:7 *538:6 1.28
5 *538:3 *538:7 4
6 *538:3 *538:2 0.6
7 *538:8 *538:2 4
8 *1167:B *538:8 3.6
*END

*D_NET *539 0.00137256

*CONN
*I *1168:Y O *C 207.6 34.5 *L 0 *D OAI21X1
*I *1167:C I *C 210 28.5 *L 0.0216 *D OAI21X1

*CAP
1 *1168:Y 0.00023916
2 *1167:C 0.00023916
3 *539:2 0.00044712
4 *539:3 0.00044712

*RES
1 *1167:C *539:3 0.27
2 *539:2 *1168:Y 0.27
3 *539:2 *539:3 0.24
*END

*D_NET *540 0.00480538

*CONN
*I *1170:Y O *C 193.2 34.5 *L 0 *D OAI22X1
*I *1168:A I *C 200.4 34.5 *L 0.0323 *D OAI21X1

*CAP
1 *1170:Y 0.00028335
2 *1168:A 0.00028335
3 *540:2 0.0004675
4 *540:3 0.0004675
5 *540:4 0.00117265
6 *540:5 0.00117265
7 *540:6 0.00047919
8 *540:7 0.00047919

*RES
1 *540:3 *1168:A 4
2 *540:3 *540:2 0.3
3 *540:4 *540:2 4
4 *540:5 *540:4 0.24
5 *540:7 *540:5 4
6 *540:6 *1170:Y 4
7 *540:6 *540:7 0.3
*END

*D_NET *541 0.019499

*CONN
*I *1169:Y O *C 135.6 34.5 *L 0 *D OAI22X1
*I *1168:B I *C 202.8 31.5 *L 0.033 *D OAI21X1

*CAP
1 *1169:Y 0.00028335
2 *1168:B 0.00028335
3 *541:2 0.00180485
4 *541:3 0.00180485
5 *541:4 0.0061447
6 *541:5 0.00151659
7 *541:6 0.00151659
8 *541:7 0.0061447

*RES
1 *541:5 *1168:B 4
2 *541:6 *541:5 1.5
3 *541:7 *541:6 4
4 *541:4 *541:7 2.24
5 *541:3 *541:4 4
6 *541:3 *541:2 1.8
7 *541:2 *1169:Y 4
*END

*D_NET *542 0.0139619

*CONN
*I *1172:Y O *C 334.8 34.5 *L 0 *D OAI22X1
*I *1171:C I *C 289.2 37.5 *L 0.0277 *D AOI21X1

*CAP
1 *1172:Y 0.00028335
2 *1171:C 0.00041594
3 *542:2 0.0007048
4 *542:3 0.0007048
5 *542:4 0.00102005
6 *542:5 0.00102005
7 *542:6 0.00361698
8 *542:7 0.00361698
9 *542:8 0.00058595
10 *542:6 *228:6 0.00099649
11 *542:7 *228:7 0.00099649

*RES
1 *542:5 *1172:Y 4
2 *542:5 *542:4 0.9
3 *542:6 *542:4 4
4 *542:7 *542:6 1.36
5 *542:2 *542:7 4
6 *542:3 *542:2 0.6
7 *1171:C *542:8 0.48
8 *542:8 *542:3 4
*END

*D_NET *543 0.00884938

*CONN
*I *1177:Y O *C 258 271.5 *L 0 *D AOI21X1
*I *1173:B I *C 226.8 271.5 *L 0.033 *D OAI21X1

*CAP
1 *1177:Y 0.00087894
2 *1173:B 0.00028335
3 *543:2 0.00238653
4 *543:3 0.00238653
5 *543:4 0.00047919
6 *543:5 0.00047919
7 *543:6 0.00104895
8 *543:7 0.00045335
9 *543:8 0.00045335

*RES
1 *543:6 *1177:Y 0.945
2 *543:7 *543:6 4
3 *543:7 *543:8 0.3
4 *543:2 *543:8 4
5 *543:3 *543:2 0.72
6 *543:5 *543:3 4
7 *543:4 *543:5 0.3
8 *1173:B *543:4 4
*END

*D_NET *544 0.0292646

*CONN
*I *1174:Y O *C 111.6 235.5 *L 0 *D OAI21X1
*I *1173:C I *C 222 268.5 *L 0.0216 *D OAI21X1

*CAP
1 *1174:Y 0.000476
2 *1173:C 0.00028335
3 *544:2 0.00260781
4 *544:3 0.00260781
5 *544:4 0.00064601
6 *544:5 0.00944353
7 *544:6 0.00944353
8 *544:7 0.00078216
9 *544:8 0.00078216
10 *544:5 *298:14 0.00109614
11 *544:6 *298:15 0.00109614

*RES
1 *544:8 *1173:C 4
2 *544:7 *544:8 0.6
3 *544:5 *544:7 4
4 *544:6 *544:5 3.52
5 *544:2 *544:6 4
6 *544:3 *544:2 2.7
7 *1174:Y *544:4 0.48
8 *544:4 *544:3 4
*END

*D_NET *545 0.00344562

*CONN
*I *1176:Y O *C 97.2 235.5 *L 0 *D OAI22X1
*I *1174:A I *C 104.4 235.5 *L 0.0323 *D OAI21X1

*CAP
1 *1176:Y 0.00028335
2 *1174:A 0.00028335
3 *545:2 0.00047494
4 *545:3 0.00096452
5 *545:4 0.00096452
6 *545:5 0.00047494

*RES
1 *545:5 *1174:A 4
2 *545:4 *545:5 0.3
3 *545:3 *545:4 0.72
4 *545:3 *545:2 0.3
5 *545:2 *1176:Y 4
*END

*D_NET *546 0.0191021

*CONN
*I *1175:Y O *C 54 274.5 *L 0 *D OAI22X1
*I *1174:B I *C 106.8 238.5 *L 0.033 *D OAI21X1

*CAP
1 *1175:Y 0.00028335
2 *1174:B 0.00020796
3 *546:2 0.00047919
4 *546:3 0.00047919
5 *546:4 0.00504029
6 *546:5 0.00504029
7 *546:6 0.00037797
8 *546:7 0.00275286
9 *546:8 0.00275286
10 *546:8 *14:37 7.673e-05
11 *546:7 *14:30 7.673e-05
12 *546:8 *14:30 0.00076735
13 *546:7 *14:31 0.00076735

*RES
1 *546:8 *1175:Y 4
2 *546:7 *546:8 3.3
3 *546:5 *546:7 4
4 *546:5 *546:4 1.68
5 *546:2 *546:4 4
6 *546:6 *1174:B 0.24
7 *546:3 *546:2 0.3
8 *546:3 *546:6 4
*END

*D_NET *547 0.0268561

*CONN
*I *1178:Y O *C 322.8 214.5 *L 0 *D OAI22X1
*I *1177:C I *C 258 277.5 *L 0.0277 *D AOI21X1

*CAP
1 *1178:Y 0.00028335
2 *1177:C 0.00028335
3 *547:2 0.00127935
4 *547:3 0.00127935
5 *547:4 0.00592093
6 *547:5 0.00592093
7 *547:6 0.00345542
8 *547:7 0.00124999
9 *547:8 0.00098028
10 *547:9 0.00372513
11 *547:9 *597:21 0.00092081
12 *547:6 *597:13 0.00092081
13 *547:9 *597:13 0.00015347
14 *547:6 *597:14 0.00015347
15 *547:8 *597:21 1.126e-05
16 *547:7 *597:13 1.126e-05
17 *547:8 *597:17 0.00015347
18 *547:7 *597:18 0.00015347

*RES
1 *547:3 *1178:Y 4
2 *547:3 *547:2 1.2
3 *547:8 *1177:C 4
4 *547:4 *547:2 4
5 *547:7 *547:8 0.9
6 *547:5 *547:4 2
7 *547:7 *547:9 0.48
8 *547:6 *547:5 4
9 *547:6 *547:9 4.2
*END

*D_NET *548 0.0269539

*CONN
*I *1184:Y O *C 274.8 31.5 *L 0 *D AOI21X1
*I *1179:B I *C 164.4 31.5 *L 0.033 *D OAI21X1

*CAP
1 *1184:Y 0.00028335
2 *1179:B 0.00018198
3 *548:2 0.00765841
4 *548:3 0.00765841
5 *548:4 0.00035199
6 *548:5 0.00042997
7 *548:6 0.00042997
8 *548:7 0.0004491
9 *548:8 0.0004491
10 *548:2 *592:33 4.663e-05
11 *548:3 *592:24 4.663e-05
12 *548:2 *592:34 0.0003986
13 *548:3 *592:35 0.0003986
14 *548:2 *592:35 0.00129543
15 *548:3 *592:36 0.00129543
16 *548:2 *538:6 0.00099649
17 *548:3 *538:7 0.00099649
18 *548:2 *40:2 0.00179368
19 *548:3 *40:3 0.00179368

*RES
1 *548:8 *1184:Y 4
2 *548:7 *548:8 0.3
3 *548:2 *548:7 4
4 *548:3 *548:2 3.6
5 *548:6 *548:3 4
6 *548:6 *548:5 0.3
7 *1179:B *548:4 0.21
8 *548:4 *548:5 4
*END

*D_NET *549 0.0144448

*CONN
*I *1180:Y O *C 94.8 34.5 *L 0 *D OAI21X1
*I *1179:C I *C 159.6 28.5 *L 0.0216 *D OAI21X1

*CAP
1 *1180:Y 0.00101386
2 *1179:C 0.00102686
3 *549:2 0.00388566
4 *549:3 0.00388566
5 *549:4 0.00118387
6 *549:5 0.00073613
7 *549:6 0.00073613
8 *549:7 0.00119687
9 *549:8 0.00038987
10 *549:9 0.00038987

*RES
1 *549:7 *1179:C 1.185
2 *549:9 *549:7 4
3 *549:8 *549:9 0.24
4 *549:2 *549:8 4
5 *549:3 *549:2 1.28
6 *549:6 *549:3 4
7 *549:6 *549:5 0.6
8 *549:4 *549:5 4
9 *1180:Y *549:4 1.17
*END

*D_NET *550 0.0055593

*CONN
*I *1183:Y O *C 85.2 55.5 *L 0 *D OAI22X1
*I *1180:A I *C 87.6 34.5 *L 0.0323 *D OAI21X1

*CAP
1 *1183:Y 0.00028335
2 *1180:A 0.00028335
3 *550:2 0.00038987
4 *550:3 0.00232629
5 *550:4 0.00227644

*RES
1 *550:4 *1180:A 4
2 *550:4 *550:3 2.1
3 *550:2 *1183:Y 4
4 *550:2 *550:3 0.24
*END

*D_NET *551 0.0242333

*CONN
*I *1181:Y O *C 63.6 115.5 *L 0 *D OAI22X1
*I *1180:B I *C 90 31.5 *L 0.033 *D OAI21X1

*CAP
1 *1181:Y 0.00028335
2 *1180:B 0.00028335
3 *551:2 0.0031069
4 *551:3 0.00283719
5 *551:4 0.00214701
6 *551:5 0.00214701
7 *551:6 0.00438344
8 *551:7 0.00465315
9 *551:8 0.00219593
10 *551:9 0.00219593

*RES
1 *551:5 *1180:B 4
2 *551:5 *551:4 1.8
3 *551:9 *551:4 4
4 *551:8 *551:9 0.72
5 *551:3 *551:8 4
6 *551:3 *551:2 2.7
7 *551:7 *551:2 0.48
8 *551:7 *551:6 3.9
9 *551:6 *1181:Y 4
*END

*D_NET *552 0.0108671

*CONN
*I *1185:Y O *C 306 34.5 *L 0 *D OAI22X1
*I *1184:C I *C 274.8 37.5 *L 0.0277 *D AOI21X1

*CAP
1 *1185:Y 0.00028335
2 *1184:C 0.00028335
3 *552:2 0.00047494
4 *552:3 0.00047494
5 *552:4 0.00068581
6 *552:5 0.00068581
7 *552:6 0.0026173
8 *552:7 0.0026173
9 *552:7 *598:53 9.965e-05
10 *552:6 *598:54 9.965e-05
11 *552:7 *598:54 0.00119579
12 *552:6 *598:55 0.00119579
13 *552:4 *598:35 7.673e-05
14 *552:5 *598:36 7.673e-05

*RES
1 *552:5 *1185:Y 4
2 *552:5 *552:4 0.6
3 *552:7 *552:4 4
4 *552:6 *552:7 1.04
5 *552:2 *552:6 4
6 *552:3 *1184:C 4
7 *552:3 *552:2 0.3
*END

*D_NET *553 0.00874048

*CONN
*I *1189:Y O *C 262.8 475.5 *L 0 *D OAI21X1
*I *1187:A I *C 260.4 517.5 *L 0.0277 *D OR2X1

*CAP
1 *1189:Y 0.00020374
2 *1187:A 0.00028335
3 *553:2 0.00393982
4 *553:3 0.00393982
5 *553:4 0.00037375

*RES
1 *553:4 *1189:Y 0.225
2 *553:3 *553:4 4
3 *553:3 *553:2 4.2
4 *1187:A *553:2 4
*END

*D_NET *554 0.0110846

*CONN
*I *1188:Y O *C 243.6 475.5 *L 0 *D OAI21X1
*I *1187:B I *C 262.8 514.5 *L 0.027 *D OR2X1

*CAP
1 *1188:Y 0.00028335
2 *1187:B 0.00102686
3 *554:2 0.00119687
4 *554:3 0.0036473
5 *554:4 0.00411874
6 *554:5 0.00081146

*RES
1 *554:2 *1187:B 1.185
2 *554:5 *554:2 4
3 *554:4 *554:5 0.72
4 *554:3 *554:4 3.9
5 *1188:Y *554:3 4
*END

*D_NET *555 0.0307719

*CONN
*I *1202:Y O *C 116.4 508.5 *L 0 *D NAND3X1
*I *1199:A I *C 217.2 517.5 *L 0.0277 *D OR2X1
*I *667:A I *C 246 514.5 *L 0.0333 *D INVX2

*CAP
1 *1202:Y 0.00028335
2 *1199:A 0.00028335
3 *667:A 0.00124782
4 *555:3 0.00170131
5 *555:4 0.0016575
6 *555:5 0.00075829
7 *555:6 0.00075829
8 *555:7 0.0089058
9 *555:8 0.0089058
10 *555:9 0.00156224
11 *555:10 0.00156224
12 *555:11 0.00048431
13 *555:12 0.00038383
14 *555:13 0.00042997
15 *555:14 0.00042997
16 *555:15 0.00141783

*RES
1 *555:15 *667:A 1.44
2 *555:14 *555:15 4
3 *555:14 *555:13 0.3
4 *555:9 *555:13 4
5 *555:10 *555:9 0.4
6 *555:12 *555:10 4
7 *555:11 *1199:A 4
8 *555:11 *555:12 0.24
9 *555:3 *555:11 0.24
10 *555:4 *555:3 1.5
11 *555:7 *555:4 4
12 *555:8 *555:7 3.28
13 *555:6 *555:8 4
14 *555:6 *555:5 0.6
15 *555:5 *1202:Y 4
*END

*D_NET *556 0.0359649

*CONN
*I *1190:Y O *C 118.8 448.5 *L 0 *D NAND3X1
*I *1189:C I *C 262.8 481.5 *L 0.0216 *D OAI21X1

*CAP
1 *1190:Y 0.00028335
2 *1189:C 0.00061968
3 *556:2 0.00103738
4 *556:3 0.00103738
5 *556:4 0.00229926
6 *556:5 0.00229926
7 *556:6 0.00078969
8 *556:7 0.00844342
9 *556:8 0.00839693
10 *556:9 0.00326342
11 *556:10 0.00330991
12 *556:9 *569:12 0.00029895
13 *556:10 *569:13 0.00029895
14 *556:9 *569:13 0.00059789
15 *556:10 *569:14 0.00059789
16 *556:7 *176:15 0.00119579
17 *556:8 *176:16 0.00119579

*RES
1 *556:6 *1189:C 0.705
2 *556:4 *556:6 4
3 *556:5 *556:4 2.1
4 *556:9 *556:5 4
5 *556:10 *556:9 1.28
6 *556:7 *556:10 0.1
7 *556:8 *556:7 3.28
8 *556:2 *556:8 4
9 *556:3 *556:2 0.9
10 *1190:Y *556:3 4
*END

*D_NET *557 0.0296191

*CONN
*I *1214:Y O *C 73.2 481.5 *L 0 *D NAND3X1
*I *1212:A I *C 152.4 475.5 *L 0.0323 *D OAI21X1
*I *1195:B I *C 157.2 451.5 *L 0.0277 *D NOR2X1
*I *707:A I *C 123.6 454.5 *L 0.0333 *D INVX2

*CAP
1 *1214:Y 0.00130788
2 *1212:A 0.000238
3 *1195:B 0.00028335
4 *707:A 0.00028335
5 *557:4 0.00040801
6 *557:5 0.00128636
7 *557:6 0.00128636
8 *557:7 0.0018584
9 *557:8 0.0018584
10 *557:9 0.00084007
11 *557:10 0.00084007
12 *557:11 0.00630343
13 *557:12 0.00392917
14 *557:13 0.00150341
15 *557:14 0.00150341
16 *557:15 0.00339292
17 *557:16 0.00147789
18 *557:17 0.00101866

*RES
1 *557:4 *1212:A 0.24
2 *557:8 *1195:B 4
3 *557:9 *557:4 4
4 *557:8 *557:7 1.8
5 *557:14 *707:A 4
6 *557:10 *557:9 0.6
7 *557:17 *557:7 4
8 *557:14 *557:13 1.5
9 *557:15 *557:10 4
10 *557:15 *557:17 0.24
11 *557:11 *557:13 4
12 *557:11 *557:15 0.88
13 *557:12 *557:11 1.2
14 *557:6 *557:12 4
15 *557:6 *557:5 1.2
16 *557:16 *557:5 4
17 *1214:Y *557:16 1.44
*END

*D_NET *558 0.0231003

*CONN
*I *1199:Y O *C 224.4 511.5 *L 0 *D OR2X1
*I *1196:B I *C 224.4 478.5 *L 0.0269 *D NAND3X1
*I *1192:B I *C 178.8 478.5 *L 0.0269 *D NAND3X1

*CAP
1 *1199:Y 0.00028335
2 *1196:B 0.00028335
3 *1192:B 0.00028335
4 *558:3 0.00109758
5 *558:4 0.00109758
6 *558:5 0.00358674
7 *558:6 0.0044785
8 *558:7 0.00117511
9 *558:8 0.00381298
10 *558:9 0.00381298
11 *558:8 *568:6 0.00159438
12 *558:9 *568:7 0.00159438

*RES
1 *558:3 *1192:B 4
2 *558:4 *558:3 0.9
3 *558:9 *558:4 4
4 *558:9 *558:8 1.52
5 *558:7 *558:8 4
6 *558:6 *1196:B 4
7 *558:7 *558:6 0.9
8 *558:6 *558:5 3.3
9 *558:5 *1199:Y 4
*END

*D_NET *559 0.0100705

*CONN
*I *1193:Y O *C 159.6 511.5 *L 0 *D AOI21X1
*I *1192:C I *C 181.2 484.5 *L 0.0272 *D NAND3X1

*CAP
1 *1193:Y 0.00020796
2 *1192:C 0.00179786
3 *559:2 0.0020636
4 *559:3 0.00043575
5 *559:4 0.00037797
6 *559:5 0.0019708
7 *559:6 0.0019708
8 *559:6 *562:5 0.00061388
9 *559:5 *562:6 0.00061388
10 *1192:C *562:7 9e-06
11 *559:2 *562:8 9e-06

*RES
1 *559:2 *1192:C 1.905
2 *559:2 *559:3 0.3
3 *559:5 *559:3 4
4 *559:5 *559:6 2.4
5 *559:4 *559:6 4
6 *1193:Y *559:4 0.24
*END

*D_NET *560 0.0118478

*CONN
*I *1195:Y O *C 154.8 454.5 *L 0 *D NOR2X1
*I *1193:A I *C 152.4 511.5 *L 0.0323 *D AOI21X1

*CAP
1 *1195:Y 0.00018198
2 *1193:A 0.00028335
3 *560:2 0.00035199
4 *560:3 0.00551522
5 *560:4 0.00551522

*RES
1 *560:2 *1195:Y 0.21
2 *560:3 *560:2 4
3 *560:3 *560:4 5.7
4 *1193:A *560:4 4
*END

*D_NET *561 0.00200172

*CONN
*I *1194:Y O *C 142.8 514.5 *L 0 *D NOR2X1
*I *1193:B I *C 154.8 514.5 *L 0.0325 *D AOI21X1

*CAP
1 *1194:Y 0.00100086
2 *1193:B 0.00100086

*RES
1 *1194:Y *1193:B 1.155
*END

*D_NET *562 0.020605

*CONN
*I *1212:Y O *C 159.6 475.5 *L 0 *D OAI21X1
*I *1203:A I *C 193.2 472.5 *L 0.0277 *D OR2X1
*I *1193:C I *C 159.6 517.5 *L 0.0277 *D AOI21X1

*CAP
1 *1212:Y 0.00020796
2 *1203:A 0.00028335
3 *1193:C 0.00028335
4 *562:3 0.00114931
5 *562:4 0.0011055
6 *562:5 0.00278289
7 *562:6 0.0028267
8 *562:7 0.00112263
9 *562:8 0.00112152
10 *562:9 0.00047184
11 *562:10 0.00047184
12 *562:11 0.00217225
13 *562:12 0.00217225
14 *562:13 0.00043575
15 *562:14 0.00047919
16 *562:15 0.00047919
17 *562:11 *568:6 0.00089684
18 *562:12 *568:7 0.00089684
19 *562:5 *559:6 0.00061388
20 *562:6 *559:5 0.00061388
21 *562:7 *1192:C 9e-06
22 *562:8 *559:2 9e-06

*RES
1 *562:10 *1203:A 4
2 *562:10 *562:9 0.3
3 *562:11 *562:9 4
4 *562:12 *562:11 0.72
5 *562:15 *562:12 4
6 *562:5 *1193:C 4
7 *562:14 *562:15 0.3
8 *562:6 *562:5 3.3
9 *562:13 *562:14 4
10 *562:6 *562:3 0.24
11 *562:13 *562:7 0.3
12 *562:4 *562:3 0.9
13 *562:8 *562:7 0.96
14 *562:8 *562:4 4
15 *1212:Y *562:8 0.24
*END

*D_NET *563 0.0399748

*CONN
*I *1206:Y O *C 49.2 481.5 *L 0 *D NAND3X1
*I *1205:C I *C 212.4 481.5 *L 0.0216 *D OAI21X1
*I *1196:A I *C 222 481.5 *L 0.0269 *D NAND3X1

*CAP
1 *1206:Y 0.00068396
2 *1205:C 0.00064261
3 *1196:A 0.00028335
4 *563:3 0.00104489
5 *563:4 0.00100108
6 *563:5 0.00085397
7 *563:6 0.00106797
8 *563:7 0.00106797
9 *563:8 0.00109758
10 *563:9 0.00109758
11 *563:10 0.00081262
12 *563:11 0.0147723
13 *563:12 0.013243
14 *563:13 0.00192208
15 *563:14 0.00038383

*RES
1 *563:10 *1205:C 0.72
2 *563:9 *1196:A 4
3 *563:7 *563:10 4
4 *563:9 *563:8 0.9
5 *563:7 *563:6 0.9
6 *563:13 *563:8 4
7 *563:11 *563:6 4
8 *563:11 *563:13 0.56
9 *563:12 *563:11 4.88
10 *563:14 *563:12 4
11 *563:3 *563:14 0.24
12 *563:4 *563:3 0.9
13 *1206:Y *563:5 0.72
14 *563:5 *563:4 4
*END

*D_NET *564 0.0191616

*CONN
*I *1197:Y O *C 226.8 391.5 *L 0 *D AOI22X1
*I *1196:C I *C 226.8 484.5 *L 0.0272 *D NAND3X1

*CAP
1 *1197:Y 0.00028335
2 *1196:C 0.00028335
3 *564:2 0.0085301
4 *564:3 0.0085301
5 *564:3 *216:6 0.00069061
6 *564:2 *216:7 0.00069061
7 *564:3 *216:7 7.673e-05
8 *564:2 *216:8 7.673e-05

*RES
1 *564:3 *1196:C 4
2 *564:2 *1197:Y 4
3 *564:2 *564:3 9.3
*END

*D_NET *565 0.00075388

*CONN
*I *1204:Y O *C 195.6 475.5 *L 0 *D OAI21X1
*I *1203:B I *C 190.8 475.5 *L 0.027 *D OR2X1

*CAP
1 *1204:Y 0.00037694
2 *1203:B 0.00037694

*RES
1 *1203:B *1204:Y 0.435
*END

*D_NET *566 0.0234026

*CONN
*I *1230:Y O *C 236.4 418.5 *L 0 *D NAND2X1
*I *1204:B I *C 200.4 478.5 *L 0.033 *D OAI21X1
*I *745:A I *C 200.4 415.5 *L 0.0333 *D INVX2

*CAP
1 *1230:Y 0.00231992
2 *1204:B 0.00041809
3 *745:A 0.00028335
4 *566:3 0.00047184
5 *566:4 0.00047184
6 *566:5 0.00248993
7 *566:6 0.00165588
8 *566:7 0.00165588
9 *566:8 0.00197885
10 *566:9 0.00071967
11 *566:10 0.00180015
12 *566:11 0.00440337
13 *566:12 0.00414575
14 *566:13 0.0005881

*RES
1 *1204:B *566:13 0.45
2 *566:5 *1230:Y 2.4
3 *566:12 *566:13 4
4 *566:4 *566:5 4
5 *566:11 *566:12 4.2
6 *566:4 *566:3 0.3
7 *566:9 *745:A 4
8 *566:10 *566:11 0.48
9 *566:6 *566:3 4
10 *566:9 *566:8 0.6
11 *566:8 *566:10 1.5
12 *566:7 *566:6 0.4
13 *566:7 *566:8 4
*END

*D_NET *567 0.0135314

*CONN
*I *1205:Y O *C 212.4 475.5 *L 0 *D OAI21X1
*I *668:A I *C 226.8 514.5 *L 0.0333 *D INVX2

*CAP
1 *1205:Y 0.00028335
2 *668:A 0.00028335
3 *567:2 0.00135508
4 *567:3 0.00135508
5 *567:4 0.00250184
6 *567:5 0.00250184
7 *567:6 0.00141364
8 *567:7 0.00141364
9 *567:6 *134:7 0.00059789
10 *567:7 *134:8 0.00059789
11 *567:4 *134:5 0.00061388
12 *567:5 *134:6 0.00061388

*RES
1 *567:4 *668:A 4
2 *567:5 *567:4 2.7
3 *567:6 *567:5 4
4 *567:7 *567:6 0.48
5 *567:2 *567:7 4
6 *567:3 *1205:Y 4
7 *567:3 *567:2 1.2
*END

*D_NET *568 0.0238688

*CONN
*I *1209:Y O *C 123.6 478.5 *L 0 *D NAND2X1
*I *1205:B I *C 217.2 478.5 *L 0.033 *D OAI21X1

*CAP
1 *1209:Y 0.00165076
2 *1205:B 0.00028335
3 *568:2 0.00081422
4 *568:3 0.00081422
5 *568:4 0.00073915
6 *568:5 0.00073915
7 *568:6 0.00601237
8 *568:7 0.00601237
9 *568:8 0.00182077
10 *568:6 *562:11 0.00089684
11 *568:7 *562:12 0.00089684
12 *568:6 *558:8 0.00159438
13 *568:7 *558:9 0.00159438

*RES
1 *568:2 *1205:B 4
2 *568:3 *568:2 0.6
3 *568:6 *568:3 4
4 *568:7 *568:6 2.48
5 *568:5 *568:7 4
6 *568:5 *568:4 0.6
7 *568:8 *568:4 4
8 *1209:Y *568:8 1.905
*END

*D_NET *569 0.0523046

*CONN
*I *1216:Y O *C 243.6 454.5 *L 0 *D NOR2X1
*I *1214:A I *C 66 481.5 *L 0.0269 *D NAND3X1
*I *1206:B I *C 44.4 478.5 *L 0.0269 *D NAND3X1
*I *740:A I *C 236.4 454.5 *L 0.0333 *D INVX2

*CAP
1 *1216:Y 0.00028335
2 *1214:A 0.00028335
3 *1206:B 0.00028335
4 *740:A 0.00028335
5 *569:4 0.00050503
6 *569:5 0.00050503
7 *569:6 0.00238602
8 *569:7 0.00238602
9 *569:8 0.00050503
10 *569:9 0.00050503
11 *569:10 0.00045335
12 *569:11 0.00045335
13 *569:12 0.00082177
14 *569:13 0.00164039
15 *569:14 0.00121137
16 *569:15 0.0125423
17 *569:16 0.0140378
18 *569:17 0.00038383
19 *569:18 0.00038383
20 *569:19 0.00188828
21 *569:15 *315:13 0.00219227
22 *569:16 *315:14 0.00219227
23 *569:15 *315:14 0.00219227
24 *569:16 *315:17 0.00219227
25 *569:12 *556:9 0.00029895
26 *569:13 *556:10 0.00029895
27 *569:13 *556:9 0.00059789
28 *569:14 *556:10 0.00059789

*RES
1 *569:9 *1216:Y 4
2 *569:11 *740:A 4
3 *569:9 *569:8 0.3
4 *569:11 *569:10 0.3
5 *569:12 *569:8 4
6 *569:13 *569:10 4
7 *569:13 *569:12 0.24
8 *569:14 *569:13 0.48
9 *569:7 *569:14 4
10 *569:7 *569:6 2.1
11 *569:4 *1214:A 4
12 *569:15 *569:6 4
13 *569:5 *569:4 0.3
14 *569:16 *569:15 5.2
15 *569:16 *569:5 4
16 *569:19 *569:16 0.64
17 *569:18 *569:19 4
18 *569:17 *1206:B 4
19 *569:17 *569:18 0.24
*END

*D_NET *570 0.00651982

*CONN
*I *1207:Y O *C 44.4 514.5 *L 0 *D NOR2X1
*I *1206:C I *C 46.8 484.5 *L 0.0272 *D NAND3X1

*CAP
1 *1207:Y 0.00028335
2 *1206:C 0.00020796
3 *570:2 0.00282527
4 *570:3 0.00282527
5 *570:4 0.00037797

*RES
1 *570:4 *1206:C 0.24
2 *570:3 *570:4 4
3 *570:3 *570:2 3
4 *570:2 *1207:Y 4
*END

*D_NET *571 0.0112812

*CONN
*I *1211:Y O *C 75.6 508.5 *L 0 *D NAND3X1
*I *1210:A I *C 61.2 517.5 *L 0.027 *D NOR2X1
*I *1207:A I *C 42 517.5 *L 0.027 *D NOR2X1

*CAP
1 *1211:Y 0.00020796
2 *1210:A 0.00028335
3 *1207:A 0.00028335
4 *571:3 0.00123332
5 *571:4 0.00123332
6 *571:5 0.00127479
7 *571:6 0.00277032
8 *571:7 0.00188828
9 *571:8 0.00037797
10 *571:9 0.00042997
11 *571:10 0.00042997
12 *571:11 0.00043431
13 *571:12 0.00043431

*RES
1 *571:9 *1207:A 4
2 *571:12 *1210:A 4
3 *571:9 *571:10 0.3
4 *571:8 *1211:Y 0.24
5 *571:12 *571:11 0.3
6 *571:7 *571:10 4
7 *571:4 *571:8 4
8 *571:6 *571:11 4
9 *571:7 *571:6 0.64
10 *571:4 *571:3 1.2
11 *571:6 *571:5 0.4
12 *571:5 *571:3 4
*END

*D_NET *572 0.0118777

*CONN
*I *1208:Y O *C 92.4 511.5 *L 0 *D NAND2X1
*I *1207:B I *C 46.8 511.5 *L 0.0277 *D NOR2X1

*CAP
1 *1208:Y 0.0006239
2 *1207:B 0.0006239
3 *572:2 0.00047297
4 *572:3 0.00047297
5 *572:4 0.00045335
6 *572:5 0.00045335
7 *572:6 0.00249858
8 *572:7 0.00249858
9 *572:8 0.00079391
10 *572:9 0.00079391
11 *572:6 *458:16 0.00109614
12 *572:7 *458:17 0.00109614

*RES
1 *572:9 *1208:Y 0.72
2 *572:4 *572:9 4
3 *572:5 *572:4 0.3
4 *572:6 *572:5 4
5 *572:7 *572:6 1.04
6 *572:3 *572:7 4
7 *572:3 *572:2 0.3
8 *1207:B *572:8 0.72
9 *572:8 *572:2 4
*END

*D_NET *573 0.00125592

*CONN
*I *1213:Y O *C 147.6 478.5 *L 0 *D NAND2X1
*I *1212:B I *C 154.8 478.5 *L 0.033 *D OAI21X1

*CAP
1 *1213:Y 0.00062796
2 *1212:B 0.00062796

*RES
1 *1213:Y *1212:B 0.69
*END

*D_NET *574 0.00400866

*CONN
*I *1215:Y O *C 61.2 475.5 *L 0 *D NOR2X1
*I *1214:C I *C 70.8 484.5 *L 0.0272 *D NAND3X1

*CAP
1 *1215:Y 0.00019498
2 *1214:C 0.00040294
3 *574:2 0.00106639
4 *574:3 0.00102258
5 *574:4 0.00036499
6 *574:5 0.00038383
7 *574:6 0.00057295

*RES
1 *574:6 *1214:C 0.465
2 *574:5 *574:6 4
3 *574:2 *574:5 0.24
4 *574:3 *574:2 0.9
5 *1215:Y *574:4 0.225
6 *574:4 *574:3 4
*END

*D_NET *575 0.0798375

*CONN
*I *655:A I *C 464.4 118.5 *L 0.0161 *D BUFX2
*I *1226:Y O *C 298.8 298.5 *L 0 *D NAND2X1

*CAP
1 *655:A 0.00028335
2 *1226:Y 0.00067098
3 *575:2 0.00458118
4 *575:3 0.0045211
5 *575:4 0.00162562
6 *575:5 0.00162562
7 *575:6 0.00917601
8 *575:7 0.00430001
9 *575:8 0.00212854
10 *575:9 0.00221703
11 *575:10 0.00067663
12 *575:11 0.00073671
13 *575:12 0.00684136
14 *575:13 0.00684136
15 *575:14 0.00093672
16 *575:15 0.00414067
17 *575:16 0.00414067
18 *575:17 0.00523637
19 *575:18 0.00043575
20 *575:17 *17:46 0.00129543
21 *575:6 *17:47 0.00129543
22 *575:17 *17:48 0.00079719
23 *575:6 *17:49 0.00079719
24 *575:17 *17:50 1.784e-05
25 *575:6 *17:51 1.784e-05
26 *575:15 *17:26 1.126e-05
27 *575:16 *17:27 1.126e-05
28 *575:15 *17:44 4.662e-05
29 *575:16 *17:45 4.662e-05
30 *575:17 *300:8 0.00038199
31 *575:6 *300:4 0.00038199
32 *575:6 *300:4 0.00190994
33 *575:7 *300:5 0.00190994
34 *575:4 *527:6 0.00089684
35 *575:5 *527:7 0.00089684
36 *575:8 *527:6 0.00109614
37 *575:9 *527:7 0.00109614
38 *575:6 *527:6 2.513e-05
39 *575:7 *527:7 2.513e-05
40 *575:6 *304:39 0.00089684
41 *575:7 *304:21 0.00089684
42 *575:6 *304:21 0.00059789
43 *575:7 *304:22 0.00059789
44 *575:2 *517:8 6.6e-06
45 *575:3 *517:2 6.6e-06
46 *575:2 *517:6 0.00138122
47 *575:3 *517:5 0.00138122

*RES
1 *575:14 *1226:Y 0.705
2 *575:18 *575:14 0.3
3 *575:2 *575:18 4
4 *575:3 *575:2 5.7
5 *575:12 *575:3 0.12
6 *575:13 *575:12 6.9
7 *575:10 *575:13 0.12
8 *575:11 *575:10 0.6
9 *575:9 *575:11 4
10 *575:9 *575:8 0.88
11 *575:5 *575:8 0.05
12 *575:5 *575:4 0.72
13 *575:7 *575:4 0.05
14 *575:6 *575:17 2.14667
15 *575:7 *575:6 2.09333
16 *575:15 *575:17 4
17 *575:16 *575:15 4.2
18 *655:A *575:16 4
*END

*D_NET *577 0.0333598

*CONN
*I *1251:A I *C 145.2 415.5 *L 0.0333 *D INVX2
*I *1231:Y O *C 166.8 418.5 *L 0 *D AND2X2
*I *1073:A I *C 147.6 394.5 *L 0.0323 *D OAI22X1
*I *1072:A I *C 145.2 454.5 *L 0.0323 *D OAI22X1
*I *1071:A I *C 130.8 415.5 *L 0.0323 *D OAI22X1
*I *1070:A I *C 142.8 415.5 *L 0.0323 *D OAI22X1
*I *1069:A I *C 164.4 415.5 *L 0.0323 *D OAI22X1
*I *1068:A I *C 135.6 394.5 *L 0.0323 *D OAI22X1
*I *1067:A I *C 166.8 394.5 *L 0.0323 *D OAI22X1
*I *1066:A I *C 164.4 394.5 *L 0.0323 *D OAI22X1

*CAP
1 *1251:A 0.00028335
2 *1231:Y 0.00020796
3 *1073:A 0.00028335
4 *1072:A 0.00028335
5 *1071:A 0.00028335
6 *1070:A 0.00028335
7 *1069:A 0.00028335
8 *1068:A 0.00028335
9 *1067:A 0.000238
10 *1066:A 0.00040801
11 *577:10 0.00235022
12 *577:11 0.00232438
13 *577:12 0.00047919
14 *577:13 0.00193493
15 *577:14 0.00193493
16 *577:15 0.00157475
17 *577:16 0.00131713
18 *577:17 0.0009852
19 *577:18 0.00188427
20 *577:19 0.00125637
21 *577:20 0.00256989
22 *577:21 0.0051004
23 *577:22 0.00388736
24 *577:23 0.00038383
25 *577:24 0.00038383
26 *577:25 0.00037797
27 *577:26 0.00079348
28 *577:27 0.00047919
29 *577:28 0.00050503

*RES
1 *577:25 *1231:Y 0.24
2 *1066:A *1067:A 0.24
3 *577:28 *577:25 4
4 *577:12 *1066:A 4
5 *577:10 *1069:A 4
6 *577:10 *577:28 0.3
7 *577:12 *577:11 0.3
8 *577:11 *577:10 1.8
9 *577:13 *577:11 4
10 *577:14 *577:13 0.56
11 *577:27 *577:14 4
12 *577:23 *1072:A 4
13 *577:26 *1073:A 4
14 *577:26 *577:27 0.3
15 *577:22 *577:23 0.24
16 *577:24 *1251:A 4
17 *577:19 *577:26 0.48
18 *577:21 *1070:A 4
19 *577:21 *577:22 3.9
20 *577:21 *577:24 0.24
21 *577:17 *1068:A 4
22 *577:19 *577:20 0.9
23 *577:20 *577:21 1.2
24 *577:17 *577:18 0.9
25 *577:18 *577:20 0.72
26 *577:15 *577:18 0.48
27 *577:15 *577:16 1.2
28 *1071:A *577:16 4
*END

*D_NET *578 0.0403305

*CONN
*I *1232:Y O *C 27.6 391.5 *L 0 *D INVX2
*I *1079:A I *C 70.8 355.5 *L 0.0323 *D OAI22X1
*I *1067:D I *C 174 391.5 *L 0.0332 *D OAI22X1

*CAP
1 *1232:Y 0.00123482
2 *1079:A 0.00083188
3 *1067:D 0.00028335
4 *578:3 0.00314692
5 *578:4 0.00314692
6 *578:5 0.00078839
7 *578:6 0.00078839
8 *578:7 0.0004675
9 *578:8 0.0004675
10 *578:9 0.00140483
11 *578:10 0.00192692
12 *578:11 0.00715422
13 *578:12 0.00603345
14 *578:13 0.00566654
15 *578:14 0.00598696
16 *578:15 0.00100189

*RES
1 *578:5 *1067:D 4
2 *578:6 *578:5 0.6
3 *578:15 *1079:A 0.96
4 *578:14 *578:6 4
5 *578:4 *578:15 4
6 *578:12 *578:14 1.76
7 *578:4 *578:3 3.3
8 *578:12 *578:13 0.1
9 *578:11 *578:3 4
10 *578:11 *578:13 2
11 *578:10 *578:11 0.64
12 *578:8 *578:10 4
13 *578:8 *578:7 0.3
14 *578:9 *578:7 4
15 *1232:Y *578:9 1.425
*END

*D_NET *579 0.0309055

*CONN
*I *1233:Y O *C 27.6 418.5 *L 0 *D INVX2
*I *1080:A I *C 73.2 394.5 *L 0.0323 *D OAI22X1
*I *1068:C I *C 126 394.5 *L 0.0325 *D OAI22X1
*I *824:B I *C 66 418.5 *L 0.033 *D OAI22X1

*CAP
1 *1233:Y 0.00114697
2 *1080:A 0.00064096
3 *1068:C 0.00041594
4 *824:B 0.00028335
5 *579:4 0.00078103
6 *579:5 0.00078103
7 *579:6 0.0043484
8 *579:7 0.0043484
9 *579:8 0.00081097
10 *579:9 0.00131698
11 *579:10 0.0020748
12 *579:11 0.0020748
13 *579:12 0.00166837
14 *579:13 0.00189513
15 *579:14 0.00058595
16 *579:15 0.0004675
17 *579:16 0.0004675
18 *579:17 0.0006986
19 *579:18 0.00047184
20 *579:10 *24:2 0.00109614
21 *579:11 *24:3 0.00109614
22 *579:12 *24:6 2.331e-05
23 *579:13 *24:5 2.331e-05
24 *579:6 *22:9 0.00079719
25 *579:7 *22:7 0.00079719
26 *579:6 *22:7 0.00089684
27 *579:7 *22:8 0.00089684

*RES
1 *579:14 *1068:C 0.48
2 *579:5 *579:14 4
3 *579:5 *579:4 0.6
4 *579:8 *1080:A 0.705
5 *579:6 *579:4 4
6 *579:17 *579:8 4
7 *579:7 *579:6 1.84
8 *579:17 *579:13 0.6
9 *579:13 *579:7 4
10 *579:18 *824:B 4
11 *579:13 *579:12 1.5
12 *579:12 *579:18 0.3
13 *579:10 *579:12 4
14 *579:11 *579:10 0.88
15 *579:15 *579:11 4
16 *579:15 *579:16 0.3
17 *579:9 *579:16 4
18 *1233:Y *579:9 1.185
*END

*D_NET *580 0.0391585

*CONN
*I *1234:Y O *C 73.2 418.5 *L 0 *D INVX2
*I *1074:C I *C 145.2 355.5 *L 0.0325 *D OAI22X1
*I *1069:C I *C 154.8 415.5 *L 0.0325 *D OAI22X1
*I *1061:B I *C 87.6 451.5 *L 0.033 *D OAI22X1

*CAP
1 *1234:Y 0.00139797
2 *1074:C 0.00044597
3 *1069:C 0.00070333
4 *1061:B 0.00028335
5 *580:4 0.00072512
6 *580:5 0.0004675
7 *580:6 0.00061598
8 *580:7 0.0054628
9 *580:8 0.00572042
10 *580:9 0.00103115
11 *580:10 0.00103115
12 *580:11 0.00574352
13 *580:12 0.00574352
14 *580:13 0.00166371
15 *580:14 0.00043575
16 *580:15 0.00050503
17 *580:16 0.00340698
18 *580:17 0.0031853
19 *580:18 0.00058999

*RES
1 *1234:Y *580:13 1.44
2 *580:13 *580:14 0.3
3 *580:15 *580:14 4
4 *580:17 *1061:B 4
5 *580:15 *580:16 0.3
6 *580:16 *580:17 2.7
7 *580:12 *580:16 4
8 *580:12 *580:11 2.08
9 *580:9 *580:11 4
10 *580:10 *580:9 0.9
11 *580:18 *580:10 4
12 *580:18 *1069:C 0.45
13 *580:7 *1069:C 4
14 *580:8 *580:7 5.7
15 *580:4 *580:8 0.48
16 *580:5 *580:4 0.3
17 *580:6 *580:5 4
18 *1074:C *580:6 0.48
*END

*D_NET *581 0.0353204

*CONN
*I *1235:Y O *C 44.4 418.5 *L 0 *D INVX2
*I *1082:A I *C 42 394.5 *L 0.0323 *D OAI22X1
*I *1072:C I *C 135.6 454.5 *L 0.0325 *D OAI22X1
*I *1064:B I *C 75.6 451.5 *L 0.033 *D OAI22X1

*CAP
1 *1235:Y 0.00019498
2 *1082:A 0.00028335
3 *1072:C 0.00083188
4 *1064:B 0.00091171
5 *581:4 0.00071453
6 *581:5 0.00071453
7 *581:6 0.00480881
8 *581:7 0.0023338
9 *581:8 0.00050503
10 *581:9 0.00050503
11 *581:10 0.00496491
12 *581:11 0.00659401
13 *581:12 0.00108172
14 *581:13 0.00036499
15 *581:14 0.00100189
16 *581:15 0.00275836
17 *581:16 0.00202185
18 *581:10 *210:19 0.00049824
19 *581:11 *210:20 0.00049824
20 *581:10 *210:20 0.00049824
21 *581:11 *210:21 0.00049824
22 *581:10 *210:21 0.00069754
23 *581:11 *210:22 0.00069754
24 *581:11 *210:21 0.00059789
25 *581:16 *210:22 0.00059789
26 *581:15 *210:9 6.599e-05
27 *581:6 *210:10 6.599e-05
28 *581:6 *210:9 6.6e-06
29 *581:7 *210:10 6.6e-06

*RES
1 *581:14 *1072:C 0.96
2 *581:12 *1064:B 0.96
3 *581:4 *581:14 4
4 *581:8 *581:12 4
5 *581:5 *581:4 0.6
6 *581:9 *581:8 0.3
7 *581:10 *581:5 4
8 *581:11 *581:9 4
9 *581:11 *581:10 2
10 *581:16 *581:11 0.8
11 *581:13 *1235:Y 0.225
12 *581:15 *581:16 4
13 *581:6 *581:13 4
14 *581:6 *581:15 3
15 *581:7 *581:6 2.4
16 *1082:A *581:7 4
*END

*D_NET *582 0.0537471

*CONN
*I *1236:Y O *C 27.6 358.5 *L 0 *D INVX2
*I *1083:A I *C 42 355.5 *L 0.0323 *D OAI22X1
*I *1073:C I *C 138 394.5 *L 0.0325 *D OAI22X1
*I *1060:B I *C 99.6 451.5 *L 0.033 *D OAI22X1

*CAP
1 *1236:Y 0.00081888
2 *1083:A 0.00046112
3 *1073:C 0.00028335
4 *1060:B 0.00028335
5 *582:4 0.00080997
6 *582:5 0.00080997
7 *582:6 0.00905808
8 *582:7 0.00905808
9 *582:8 0.00927595
10 *582:9 0.00450106
11 *582:10 0.00516764
12 *582:11 0.0010625
13 *582:12 0.0010625
14 *582:13 0.00264508
15 *582:14 0.00264508
16 *582:15 0.0014374
17 *582:16 0.0014374
18 *582:17 0.00072686
19 *582:18 0.00155874
20 *582:19 0.00064413

*RES
1 *582:17 *1083:A 0.465
2 *1236:Y *582:18 0.945
3 *582:17 *582:18 0.3
4 *582:18 *582:19 0.48
5 *582:12 *582:19 4
6 *582:13 *1073:C 4
7 *582:12 *582:11 0.9
8 *582:14 *582:13 2.7
9 *582:9 *582:11 4
10 *582:10 *582:14 4
11 *582:9 *582:8 1.6
12 *582:8 *582:10 1.6
13 *582:7 *582:8 4
14 *582:7 *582:6 9
15 *582:15 *582:6 4
16 *582:15 *582:16 0.32
17 *582:4 *582:16 4
18 *582:5 *582:4 0.6
19 *1060:B *582:5 4
*END

*D_NET *583 0.131546

*CONN
*I *1237:Y O *C 370.8 238.5 *L 0 *D INVX2
*I *930:A I *C 428.4 214.5 *L 0.0214 *D NAND2X1
*I *666:R I *C 310.8 511.5 *L 0.043 *D DFFSR
*I *665:R I *C 174 511.5 *L 0.043 *D DFFSR
*I *664:R I *C 327.6 478.5 *L 0.043 *D DFFSR
*I *663:R I *C 178.8 451.5 *L 0.043 *D DFFSR

*CAP
1 *1237:Y 0.00124782
2 *930:A 0.00028335
3 *666:R 0.00028335
4 *665:R 0.00028335
5 *664:R 0.00028335
6 *663:R 0.00028335
7 *583:6 0.00325993
8 *583:7 0.00263173
9 *583:8 0.00194798
10 *583:9 0.00194798
11 *583:10 0.00095536
12 *583:11 0.00156909
13 *583:12 0.00152528
14 *583:13 0.00629501
15 *583:14 0.00380873
16 *583:15 0.00532778
17 *583:16 0.00537206
18 *583:17 0.0128005
19 *583:18 0.00196197
20 *583:19 0.00184068
21 *583:20 0.00184068
22 *583:21 0.00095536
23 *583:22 0.00114498
24 *583:23 0.00047297
25 *583:24 0.0124072
26 *583:25 0.0124072
27 *583:26 0.00172619
28 *583:27 0.00172619
29 *583:28 0.00417416
30 *583:29 0.00176154
31 *583:30 0.0111661
32 *583:31 0.00286148
33 *583:32 0.00117511
34 *583:33 0.00117511
35 *583:34 0.00151356
36 *583:35 0.00043575
37 *583:36 0.00237902
38 *583:37 0.00658327
39 *583:38 0.00276963
40 *583:39 0.00237902
41 *583:40 0.00658327

*RES
1 *583:12 *663:R 4
2 *583:12 *583:11 1.5
3 *583:9 *583:11 0.24
4 *583:9 *583:8 1.8
5 *583:7 *583:8 0.24
6 *583:7 *583:6 2.7
7 *583:6 *665:R 4
8 *583:6 *583:10 0.9
9 *583:25 *583:10 4
10 *583:25 *583:24 4.56
11 *583:21 *583:24 4
12 *583:22 *666:R 4
13 *583:22 *583:21 0.9
14 *583:23 *583:22 0.3
15 *583:27 *583:23 4
16 *583:27 *583:26 0.56
17 *583:38 *583:26 4
18 *583:13 *664:R 4
19 *583:13 *583:38 3
20 *583:14 *583:13 3.9
21 *583:37 *583:14 4
22 *583:37 *583:40 1.84
23 *583:15 *583:40 4
24 *583:16 *583:15 5.1
25 *583:16 *583:39 0.24
26 *583:36 *583:39 2.4
27 *583:36 *583:19 0.24
28 *1237:Y *583:34 1.44
29 *583:20 *583:19 1.8
30 *583:34 *583:35 0.3
31 *583:30 *583:20 0.24
32 *583:17 *583:35 4
33 *583:17 *583:30 10.5
34 *583:18 *583:17 1.8
35 *583:29 *583:18 4
36 *583:28 *583:31 0.946667
37 *583:29 *583:28 0.493333
38 *583:33 *583:31 4
39 *583:32 *930:A 4
40 *583:32 *583:33 0.9
*END

*D_NET *584 0.022404

*CONN
*I *1238:Y O *C 61.2 391.5 *L 0 *D INVX2
*I *1066:D I *C 157.2 391.5 *L 0.0332 *D OAI22X1

*CAP
1 *1238:Y 0.00064095
2 *1066:D 0.00028335
3 *584:2 0.00050503
4 *584:3 0.00050503
5 *584:4 0.00780497
6 *584:5 0.00780497
7 *584:6 0.00081096
8 *584:7 0.00042997
9 *584:8 0.00042997
10 *584:4 *22:9 0.00079719
11 *584:5 *22:7 0.00079719
12 *584:4 *22:7 0.00079719
13 *584:5 *22:8 0.00079719

*RES
1 *584:3 *1066:D 4
2 *584:3 *584:2 0.3
3 *584:4 *584:2 4
4 *584:5 *584:4 2.96
5 *584:8 *584:5 4
6 *584:7 *584:8 0.3
7 *584:6 *584:7 4
8 *1238:Y *584:6 0.705
*END

*D_NET *585 0.0297553

*CONN
*I *1239:Y O *C 102 391.5 *L 0 *D INVX2
*I *1070:C I *C 133.2 415.5 *L 0.0325 *D OAI22X1
*I *1062:B I *C 63.6 451.5 *L 0.033 *D OAI22X1

*CAP
1 *1239:Y 0.00040294
2 *1070:C 0.00028335
3 *1062:B 0.00028335
4 *585:3 0.00359694
5 *585:4 0.00359694
6 *585:5 0.00302223
7 *585:6 0.00302223
8 *585:7 0.00681164
9 *585:8 0.00330605
10 *585:9 0.00389834
11 *585:10 0.00057295
12 *585:11 0.00047919
13 *585:12 0.00047919

*RES
1 *585:10 *1239:Y 0.465
2 *585:11 *1070:C 4
3 *585:6 *585:10 4
4 *585:11 *585:12 0.3
5 *585:6 *585:5 2.7
6 *585:9 *585:12 4
7 *585:7 *585:5 4
8 *585:7 *585:9 1.2
9 *585:8 *585:7 1.12
10 *585:4 *585:8 4
11 *585:4 *585:3 3.3
12 *1062:B *585:3 4
*END

*D_NET *586 0.0210587

*CONN
*I *1240:Y O *C 94.8 391.5 *L 0 *D INVX2
*I *1081:A I *C 99.6 355.5 *L 0.0323 *D OAI22X1
*I *1071:C I *C 121.2 415.5 *L 0.0325 *D OAI22X1
*I *1063:B I *C 94.8 418.5 *L 0.033 *D OAI22X1

*CAP
1 *1240:Y 0.00028335
2 *1081:A 0.00028335
3 *1071:C 0.00103984
4 *1063:B 0.00028335
5 *586:4 0.005884
6 *586:5 0.00378143
7 *586:6 0.00120985
8 *586:7 0.00283938
9 *586:8 0.00047919
10 *586:9 0.00038383
11 *586:10 0.00038383
12 *586:11 0.00180482
13 *586:12 0.00180482
14 *586:13 0.00059764

*RES
1 *586:6 *1071:C 1.2
2 *586:10 *586:6 4
3 *586:9 *586:10 0.24
4 *586:12 *586:9 4
5 *586:13 *1081:A 4
6 *586:8 *1063:B 4
7 *586:11 *586:12 0.4
8 *586:5 *586:13 0.48
9 *586:7 *586:8 0.3
10 *586:7 *586:11 4
11 *586:5 *586:4 3.6
12 *586:4 *586:7 2.4
13 *1240:Y *586:4 4
*END

*D_NET *587 0.00819038

*CONN
*I *1260:Y O *C 94.8 331.5 *L 0 *D AND2X2
*I *1254:A I *C 94.8 295.5 *L 0.0333 *D INVX2

*CAP
1 *1260:Y 0.00028335
2 *1254:A 0.00028335
3 *587:2 0.00289103
4 *587:3 0.00289103
5 *587:3 *591:3 0.00092081
6 *587:2 *591:4 0.00092081

*RES
1 *587:3 *1260:Y 4
2 *587:2 *1254:A 4
3 *587:2 *587:3 3.6
*END

*D_NET *588 0.00741138

*CONN
*I *1261:Y O *C 104.4 331.5 *L 0 *D AND2X2
*I *1252:A I *C 104.4 295.5 *L 0.0665 *D INVX4

*CAP
1 *1261:Y 0.00028335
2 *1252:A 0.00028335
3 *588:2 0.00342234
4 *588:3 0.00342234

*RES
1 *588:2 *1261:Y 4
2 *588:3 *1252:A 4
3 *588:3 *588:2 3.6
*END

*D_NET *589 0.00619424

*CONN
*I *1263:Y O *C 20.4 298.5 *L 0 *D AND2X2
*I *1255:A I *C 27.6 274.5 *L 0.0665 *D INVX4

*CAP
1 *1263:Y 0.00028335
2 *1255:A 0.00061092
3 *589:2 0.00078093
4 *589:3 0.00225952
5 *589:4 0.00225952

*RES
1 *589:2 *1255:A 0.705
2 *589:3 *589:2 4
3 *589:3 *589:4 2.4
4 *1263:Y *589:4 4
*END

*D_NET *590 0.00589222

*CONN
*I *1264:Y O *C 37.2 298.5 *L 0 *D AND2X2
*I *1253:A I *C 42 274.5 *L 0.0665 *D INVX4

*CAP
1 *1264:Y 0.00028335
2 *1253:A 0.00040294
3 *590:2 0.00066868
4 *590:3 0.00043575
5 *590:4 0.00205075
6 *590:5 0.00205075

*RES
1 *590:2 *1253:A 0.465
2 *590:2 *590:3 0.3
3 *590:4 *590:3 4
4 *590:4 *590:5 2.1
5 *1264:Y *590:5 4
*END

*D_NET *591 0.051218

*CONN
*I *1265:Y O *C 188.4 238.5 *L 0 *D INVX2
*I *1256:A I *C 128.4 235.5 *L 0.0333 *D INVX2
*I *1081:D I *C 92.4 358.5 *L 0.0332 *D OAI22X1

*CAP
1 *1265:Y 0.00028335
2 *1256:A 0.00028335
3 *1081:D 0.00028335
4 *591:3 0.00655265
5 *591:4 0.00655265
6 *591:5 0.00516537
7 *591:6 0.00538705
8 *591:7 0.00081422
9 *591:8 0.00081422
10 *591:9 0.00050503
11 *591:10 0.004972
12 *591:11 0.004972
13 *591:12 0.00410363
14 *591:13 0.00410363
15 *591:10 *518:6 0.00229192
16 *591:11 *518:7 0.00229192
17 *591:3 *587:3 0.00092081
18 *591:4 *587:2 0.00092081

*RES
1 *591:7 *1265:Y 4
2 *591:3 *1081:D 4
3 *591:8 *591:7 0.6
4 *591:4 *591:3 7.5
5 *591:10 *591:8 4
6 *591:13 *591:4 4
7 *591:11 *591:10 2
8 *591:13 *591:12 1.2
9 *591:9 *591:11 4
10 *591:5 *591:12 4
11 *591:6 *1256:A 4
12 *591:9 *591:6 0.3
13 *591:6 *591:5 4.8
*END

*D_NET *592 0.125807

*CONN
*I *1256:Y O *C 130.8 238.5 *L 0 *D INVX2
*I *1180:C I *C 94.8 28.5 *L 0.0216 *D OAI21X1
*I *1179:A I *C 166.8 34.5 *L 0.0323 *D OAI21X1
*I *1174:C I *C 111.6 241.5 *L 0.0216 *D OAI21X1
*I *1168:C I *C 207.6 28.5 *L 0.0216 *D OAI21X1
*I *1167:A I *C 217.2 34.5 *L 0.0323 *D OAI21X1
*I *1162:C I *C 202.8 181.5 *L 0.0216 *D OAI21X1
*I *1156:C I *C 85.2 28.5 *L 0.0216 *D OAI21X1
*I *1155:A I *C 176.4 34.5 *L 0.0323 *D OAI21X1
*I *1150:C I *C 212.4 181.5 *L 0.0216 *D OAI21X1
*I *1144:C I *C 99.6 208.5 *L 0.0216 *D OAI21X1
*I *1143:A I *C 130.8 214.5 *L 0.0323 *D OAI21X1

*CAP
1 *1256:Y 0.00028335
2 *1180:C 0.00028335
3 *1179:A 0.00028335
4 *1174:C 0.00023916
5 *1168:C 0.00028335
6 *1167:A 0.00028335
7 *1162:C 0.00028335
8 *1156:C 0.00028335
9 *1155:A 0.00028335
10 *1150:C 0.00028335
11 *1144:C 0.00028335
12 *1143:A 0.00028335
13 *592:12 0.00117511
14 *592:13 0.00117511
15 *592:14 0.00163675
16 *592:15 0.0016866
17 *592:16 0.00090565
18 *592:17 0.0009748
19 *592:18 0.00984157
20 *592:19 0.00850546
21 *592:20 0.00218021
22 *592:21 0.00218021
23 *592:22 0.00044166
24 *592:23 0.00044166
25 *592:24 0.00937952
26 *592:25 0.00853791
27 *592:26 0.00123658
28 *592:27 0.00123658
29 *592:28 0.00104107
30 *592:29 0.00119513
31 *592:30 0.00043741
32 *592:31 0.0004675
33 *592:32 0.0004675
34 *592:33 0.00123436
35 *592:34 0.00069153
36 *592:35 0.00208902
37 *592:36 0.00179024
38 *592:37 0.0005472
39 *592:38 0.00039077
40 *592:39 0.00620893
41 *592:40 0.00608584
42 *592:41 0.00263728
43 *592:42 0.00409572
44 *592:43 0.00275225
45 *592:44 0.0027024
46 *592:45 0.00188917
47 *592:46 0.00412436
48 *592:47 0.00349626
49 *592:48 0.00116176
50 *592:49 0.00228196
51 *592:50 0.00323504
52 *592:51 0.0020734
53 *592:52 0.00322565
54 *592:53 0.00322565
55 *592:54 0.00042997
56 *592:55 0.00043978
57 *592:56 0.00043544
58 *592:57 0.00043544
59 *592:58 0.00174179
60 *592:59 0.00106229
61 *592:34 *528:4 0.0003986
62 *592:35 *528:5 0.0003986
63 *592:35 *528:4 0.00119579
64 *592:36 *528:5 0.00119579
65 *592:37 *528:8 7.673e-05
66 *592:38 *528:7 7.673e-05
67 *592:33 *548:2 4.663e-05
68 *592:24 *548:3 4.663e-05
69 *592:34 *548:2 0.0003986
70 *592:35 *548:3 0.0003986
71 *592:35 *548:2 0.00129543
72 *592:36 *548:3 0.00129543

*RES
1 *592:17 *1174:C 0.27
2 *592:17 *592:16 0.72
3 *592:14 *592:16 4
4 *592:12 *1144:C 4
5 *592:15 *592:14 1.5
6 *592:13 *592:12 0.9
7 *592:43 *592:15 0.24
8 *592:41 *1256:Y 4
9 *592:51 *592:13 4
10 *592:44 *592:43 2.4
11 *592:42 *1143:A 4
12 *592:42 *592:41 2.4
13 *592:51 *592:50 0.56
14 *592:50 *592:44 4
15 *592:58 *592:42 1.5
16 *592:50 *592:49 0.48
17 *592:49 *592:58 4
18 *592:49 *592:48 0.32
19 *592:53 *592:48 0.1
20 *592:53 *592:52 0.96
21 *592:21 *1162:C 4
22 *592:52 *592:47 0.1
23 *592:21 *592:20 1.8
24 *592:47 *592:46 1.12
25 *592:46 *592:20 4
26 *592:46 *592:59 0.32
27 *592:45 *592:59 4
28 *592:18 *1150:C 4
29 *592:18 *592:45 1.8
30 *592:19 *592:18 8.4
31 *592:19 *592:39 0.48
32 *592:40 *1167:A 4
33 *592:40 *592:39 6.3
34 *592:23 *1168:C 4
35 *592:54 *592:40 0.3
36 *592:23 *592:22 0.3
37 *592:34 *592:54 4
38 *592:35 *592:22 4
39 *592:35 *592:34 0.32
40 *592:36 *592:35 1.04
41 *592:31 *1156:C 4
42 *592:38 *592:36 4
43 *592:32 *592:31 0.3
44 *592:37 *1155:A 4
45 *592:38 *592:37 0.3
46 *592:27 *592:32 4
47 *592:56 *1179:A 4
48 *592:37 *592:55 0.3
49 *592:27 *592:26 0.32
50 *592:56 *592:57 0.3
51 *592:33 *592:55 4
52 *592:30 *592:26 4
53 *592:24 *592:57 4
54 *592:24 *592:33 0.32
55 *592:29 *1180:C 4
56 *592:30 *592:29 0.3
57 *592:25 *592:24 2.4
58 *592:29 *592:28 0.9
59 *592:28 *592:25 4
*END

*D_NET *593 0.00089424

*CONN
*I *1257:Y O *C 126 298.5 *L 0 *D INVX2
*I *1250:A I *C 128.4 295.5 *L 0.0333 *D INVX2

*CAP
1 *1257:Y 0.00020796
2 *1250:A 0.00023916
3 *593:2 0.00044712

*RES
1 *1250:A *593:2 0.27
2 *1257:Y *593:2 0.24
*END

*D_NET *594 0.132033

*CONN
*I *1250:Y O *C 130.8 298.5 *L 0 *D INVX2
*I *1130:C I *C 109.2 121.5 *L 0.0216 *D OAI21X1
*I *1124:C I *C 121.2 268.5 *L 0.0216 *D OAI21X1
*I *1123:A I *C 130.8 274.5 *L 0.0323 *D OAI21X1
*I *1118:C I *C 195.6 88.5 *L 0.0216 *D OAI21X1
*I *1112:C I *C 212.4 121.5 *L 0.0216 *D OAI21X1
*I *1111:A I *C 234 154.5 *L 0.0323 *D OAI21X1
*I *1106:C I *C 106.8 88.5 *L 0.0216 *D OAI21X1
*I *1100:C I *C 212.4 241.5 *L 0.0216 *D OAI21X1
*I *1099:A I *C 234 214.5 *L 0.0323 *D OAI21X1
*I *1088:C I *C 212.4 301.5 *L 0.0216 *D OAI21X1
*I *1087:A I *C 219.6 274.5 *L 0.0323 *D OAI21X1
*I *901:D I *C 157.2 334.5 *L 0.0332 *D AOI22X1

*CAP
1 *1250:Y 0.00028335
2 *1130:C 0.00028335
3 *1124:C 0.00028335
4 *1123:A 0.00028335
5 *1118:C 0.00028335
6 *1112:C 0.00065197
7 *1111:A 0.00028335
8 *1106:C 0.00023916
9 *1100:C 0.00063839
10 *1099:A 0.00028335
11 *1088:C 0.00062028
12 *1087:A 0.00028335
13 *901:D 0.00028335
14 *594:13 0.00221211
15 *594:14 0.00225592
16 *594:15 0.00452413
17 *594:16 0.0011149
18 *594:17 0.0008084
19 *594:18 0.00624571
20 *594:19 0.0031606
21 *594:20 0.00421599
22 *594:21 0.00421599
23 *594:22 0.00143654
24 *594:23 0.00197517
25 *594:24 0.00341831
26 *594:25 0.00481528
27 *594:26 0.00301154
28 *594:27 0.00352035
29 *594:28 0.00466961
30 *594:29 0.00143261
31 *594:30 0.0103371
32 *594:31 0.00838039
33 *594:32 0.00234949
34 *594:33 0.00039963
35 *594:34 0.00046878
36 *594:35 0.00107892
37 *594:36 0.00107892
38 *594:37 0.00154512
39 *594:38 0.00154512
40 *594:39 0.00100222
41 *594:40 0.00100222
42 *594:41 0.00197375
43 *594:42 0.00583319
44 *594:43 0.00109722
45 *594:44 0.00109722
46 *594:45 0.00291412
47 *594:46 0.00233081
48 *594:47 0.00047919
49 *594:48 0.00275214
50 *594:49 0.00775275
51 *594:50 0.00236496
52 *594:51 0.00578054
53 *594:52 0.00079029
54 *594:53 0.00038987
55 *594:54 0.00061153
56 *594:55 0.00074356
57 *594:56 0.00069975
58 *594:57 0.0010625
59 *594:51 *312:9 0.00069754
60 *594:49 *312:10 0.00069754
61 *594:51 *312:10 0.00059789
62 *594:49 *312:11 0.00059789
63 *594:51 *312:11 0.00099649
64 *594:49 *312:12 0.00099649
65 *594:55 *312:4 6.6e-06
66 *594:56 *312:5 6.6e-06
67 *594:54 *469:4 0.00015347
68 *594:48 *469:5 0.00015347
69 *594:48 *469:4 0.00069061
70 *594:42 *469:5 0.00069061
71 *594:42 *469:4 7.673e-05
72 *594:15 *469:5 7.673e-05

*RES
1 *594:40 *1124:C 4
2 *594:40 *594:39 0.9
3 *594:44 *594:39 4
4 *594:47 *1123:A 4
5 *594:44 *594:43 0.32
6 *594:47 *594:46 0.3
7 *594:46 *594:43 4
8 *594:13 *901:D 4
9 *594:45 *1250:Y 4
10 *594:46 *594:45 2.1
11 *594:14 *594:13 2.1
12 *594:45 *594:57 0.9
13 *594:55 *594:14 0.24
14 *594:50 *594:57 4
15 *594:56 *594:55 0.6
16 *594:50 *594:49 0.8
17 *594:49 *594:56 4
18 *594:49 *594:51 2.16
19 *1088:C *594:52 0.705
20 *594:54 *594:51 4
21 *594:48 *594:52 4
22 *594:48 *594:54 0.6
23 *1100:C *594:17 0.705
24 *594:42 *594:48 2.7
25 *594:42 *1087:A 4
26 *594:15 *594:17 4
27 *594:15 *594:42 3.3
28 *594:16 *594:15 0.9
29 *594:38 *594:16 4
30 *594:38 *594:37 0.4
31 *594:53 *1099:A 4
32 *594:41 *594:37 4
33 *594:25 *594:53 0.24
34 *594:25 *594:41 1.8
35 *594:26 *594:25 2.7
36 *594:26 *594:24 0.24
37 *594:18 *1111:A 4
38 *594:18 *594:24 3.3
39 *594:19 *594:18 3.3
40 *594:22 *594:19 4
41 *1112:C *594:23 0.72
42 *594:23 *594:22 1.44
43 *594:20 *594:23 4
44 *594:35 *1118:C 4
45 *594:21 *594:20 4.2
46 *594:36 *594:35 0.9
47 *594:32 *594:21 4
48 *1106:C *594:34 0.27
49 *594:30 *594:36 4
50 *594:30 *594:32 0.8
51 *594:34 *594:33 0.24
52 *594:27 *1130:C 4
53 *594:31 *594:30 2.88
54 *594:28 *594:33 4
55 *594:28 *594:27 3
56 *594:29 *594:31 4
57 *594:29 *594:28 1.2
*END

*D_NET *595 0.0481282

*CONN
*I *1249:Y O *C 536.4 31.5 *L 0 *D INVX2
*I *1225:A I *C 481.2 55.5 *L 0.0323 *D OAI22X1
*I *1224:A I *C 476.4 94.5 *L 0.0323 *D OAI22X1
*I *1223:A I *C 538.8 34.5 *L 0.0323 *D OAI22X1
*I *1222:A I *C 538.8 94.5 *L 0.0323 *D OAI22X1
*I *1221:A I *C 538.8 55.5 *L 0.0323 *D OAI22X1
*I *1220:A I *C 536.4 115.5 *L 0.0323 *D OAI22X1
*I *1219:A I *C 466.8 94.5 *L 0.0323 *D OAI22X1
*I *1218:A I *C 462 115.5 *L 0.0323 *D OAI22X1

*CAP
1 *1249:Y 0.00037797
2 *1225:A 0.00028335
3 *1224:A 0.00104504
4 *1223:A 0.00023916
5 *1222:A 0.00022313
6 *1221:A 0.00022313
7 *1220:A 0.00028335
8 *1219:A 0.00108923
9 *1218:A 0.00028335
10 *595:9 0.00170779
11 *595:10 0.001598
12 *595:11 0.00154979
13 *595:12 0.00128635
14 *595:13 0.00108284
15 *595:14 0.00134628
16 *595:15 0.00603107
17 *595:16 0.00261053
18 *595:17 0.00045335
19 *595:18 0.00045335
20 *595:19 0.00039314
21 *595:20 0.00424125
22 *595:21 0.00424125
23 *595:22 0.00224297
24 *595:23 0.0004675
25 *595:24 0.00044712
26 *595:25 0.00236115
27 *595:26 0.00578169
28 *595:27 0.00040917
29 *595:28 0.00139508
30 *595:29 0.00165852
31 *595:30 0.00232226

*RES
1 *595:13 *1218:A 4
2 *595:14 *595:13 0.9
3 *595:14 *595:11 0.48
4 *595:12 *595:11 1.2
5 *1219:A *595:12 4
6 *1219:A *1224:A 0.93
7 *595:27 *1224:A 0.27
8 *595:28 *595:27 4
9 *595:29 *595:28 1.2
10 *595:23 *1225:A 4
11 *595:29 *595:30 0.48
12 *595:23 *595:22 0.3
13 *595:22 *595:30 2.1
14 *595:21 *595:22 4
15 *595:21 *595:20 1.36
16 *595:17 *595:20 4
17 *595:18 *595:17 0.3
18 *595:10 *595:18 4
19 *595:25 *1220:A 4
20 *595:19 *1222:A 0.225
21 *595:10 *595:9 1.44
22 *595:9 *1221:A 0.225
23 *595:26 *595:25 2.1
24 *595:26 *595:19 4
25 *595:15 *595:9 4
26 *595:15 *595:26 3.9
27 *595:16 *595:15 2.4
28 *1249:Y *595:16 4
29 *1249:Y *595:24 0.24
30 *595:24 *1223:A 0.27
*END

*D_NET *596 0.0613076

*CONN
*I *1251:Y O *C 147.6 418.5 *L 0 *D INVX2
*I *1192:A I *C 176.4 481.5 *L 0.0269 *D NAND3X1
*I *1073:D I *C 140.4 391.5 *L 0.0332 *D OAI22X1
*I *1072:D I *C 138 451.5 *L 0.0332 *D OAI22X1
*I *1071:D I *C 123.6 418.5 *L 0.0332 *D OAI22X1
*I *1070:D I *C 135.6 418.5 *L 0.0332 *D OAI22X1
*I *1069:D I *C 157.2 418.5 *L 0.0332 *D OAI22X1
*I *1068:D I *C 128.4 391.5 *L 0.0332 *D OAI22X1
*I *1067:C I *C 176.4 394.5 *L 0.0325 *D OAI22X1
*I *1066:C I *C 154.8 394.5 *L 0.0325 *D OAI22X1

*CAP
1 *1251:Y 0.00061599
2 *1192:A 0.00121806
3 *1073:D 0.00028335
4 *1072:D 0.00028335
5 *1071:D 0.00028335
6 *1070:D 0.00028335
7 *1069:D 0.00028335
8 *1068:D 0.00028335
9 *1067:C 0.00028335
10 *1066:C 0.00035859
11 *596:10 0.00138807
12 *596:11 0.00254604
13 *596:12 0.00264535
14 *596:13 0.00076339
15 *596:14 0.0004491
16 *596:15 0.0004491
17 *596:16 0.0004491
18 *596:17 0.00380275
19 *596:18 0.00380275
20 *596:19 0.00287537
21 *596:20 0.00318966
22 *596:21 0.00225406
23 *596:22 0.00225406
24 *596:23 0.00102712
25 *596:24 0.00219661
26 *596:25 0.00156224
27 *596:26 0.00055889
28 *596:27 0.00044005
29 *596:28 0.0005286
30 *596:29 0.00136027
31 *596:30 0.00147911
32 *596:31 0.00131645
33 *596:32 0.00136026
34 *596:33 0.00316063
35 *596:34 0.00330841
36 *596:35 0.00047494
37 *596:36 0.00175286
38 *596:37 0.00175286
39 *596:38 0.00061599
40 *596:39 0.00038383
41 *596:40 0.00047297
42 *596:41 0.00047297
43 *596:42 0.00044166
44 *596:43 0.00038383
45 *596:44 0.00059764
46 *596:45 0.00117265
47 *596:46 0.00117265
48 *596:21 *187:2 0.00099649
49 *596:22 *187:3 0.00099649
50 *596:26 *187:6 7.673e-05
51 *596:27 *187:5 7.673e-05
52 *1066:C *187:4 6.139e-05
53 *596:28 *1073:B 6.139e-05

*RES
1 *596:10 *1192:A 1.2
2 *596:17 *596:10 4
3 *596:18 *596:17 3.6
4 *596:46 *596:18 4
5 *596:45 *596:46 0.24
6 *596:19 *596:45 4
7 *596:20 *1069:D 4
8 *596:20 *596:19 2.7
9 *596:44 *596:20 0.48
10 *596:38 *596:44 4
11 *1251:Y *596:38 0.48
12 *596:31 *1251:Y 4
13 *596:15 *1067:C 4
14 *596:32 *596:31 1.2
15 *596:16 *596:15 0.3
16 *596:28 *1066:C 0.45
17 *596:32 *596:29 0.24
18 *596:21 *596:16 4
19 *596:30 *596:28 4
20 *596:30 *596:29 1.2
21 *596:22 *596:21 0.88
22 *596:26 *596:30 0.3
23 *596:26 *596:22 4
24 *596:27 *596:26 0.3
25 *596:43 *596:27 0.24
26 *596:41 *1073:D 4
27 *596:23 *596:43 4
28 *596:40 *596:41 0.3
29 *596:24 *596:23 0.24
30 *596:24 *596:40 4
31 *596:25 *596:24 0.4
32 *596:14 *596:25 4
33 *596:14 *596:13 0.3
34 *596:13 *1068:D 4
35 *596:12 *596:13 0.48
36 *596:42 *1071:D 4
37 *596:12 *596:11 2.4
38 *596:11 *596:42 0.3
39 *596:39 *1072:D 4
40 *596:37 *596:11 4
41 *596:33 *596:39 0.24
42 *596:37 *596:36 0.4
43 *596:34 *1070:D 4
44 *596:34 *596:33 3.3
45 *596:35 *596:36 4
46 *596:35 *596:34 0.3
*END

*D_NET *597 0.092894

*CONN
*I *1262:Y O *C 248.4 151.5 *L 0 *D INVX2
*I *1184:A I *C 267.6 31.5 *L 0.0323 *D AOI21X1
*I *1177:A I *C 265.2 271.5 *L 0.0323 *D AOI21X1
*I *1171:A I *C 282 31.5 *L 0.0323 *D AOI21X1
*I *1165:A I *C 270 151.5 *L 0.0323 *D AOI21X1
*I *1159:A I *C 265.2 31.5 *L 0.0323 *D AOI21X1
*I *1153:A I *C 258 178.5 *L 0.0323 *D AOI21X1
*I *1147:A I *C 272.4 238.5 *L 0.0323 *D AOI21X1
*I *1141:A I *C 272.4 331.5 *L 0.0323 *D AOI21X1

*CAP
1 *1262:Y 0.00028335
2 *1184:A 0.00028335
3 *1177:A 0.00028335
4 *1171:A 0.00019498
5 *1165:A 0.00028335
6 *1159:A 0.00026574
7 *1153:A 0.00040294
8 *1147:A 0.00028335
9 *1141:A 0.00028335
10 *597:9 0.00239483
11 *597:10 0.00255013
12 *597:11 0.00907144
13 *597:12 0.00887985
14 *597:13 0.00865856
15 *597:14 0.00480583
16 *597:15 0.00117902
17 *597:16 0.00097689
18 *597:17 0.00101554
19 *597:18 0.0012354
20 *597:19 0.00529779
21 *597:20 0.00534764
22 *597:21 0.00385954
23 *597:22 0.0004885
24 *597:23 0.00075519
25 *597:24 0.00225919
26 *597:25 0.00071691
27 *597:26 0.00164621
28 *597:27 0.00080823
29 *597:28 0.00163101
30 *597:29 0.0004675
31 *597:30 0.0004675
32 *597:31 0.00080997
33 *597:32 0.00129955
34 *597:33 0.0021459
35 *597:34 0.0021459
36 *597:35 0.00233731
37 *597:36 0.00155882
38 *597:37 0.00155882
39 *597:38 0.00306909
40 *597:39 0.00306909
41 *597:40 0.0004675
42 *597:41 0.0004675
43 *597:42 0.00151821
44 *597:43 0.00151821
45 *597:44 0.00043575
46 *597:45 0.00036499
47 *597:46 0.00057295
48 *597:21 *547:9 0.00092081
49 *597:13 *547:6 0.00092081
50 *597:13 *547:9 0.00015347
51 *597:14 *547:6 0.00015347
52 *597:21 *547:8 1.126e-05
53 *597:13 *547:7 1.126e-05
54 *597:17 *547:8 0.00015347
55 *597:18 *547:7 0.00015347

*RES
1 *597:30 *1141:A 4
2 *597:30 *597:29 0.3
3 *597:42 *597:29 4
4 *597:43 *597:42 0.48
5 *597:19 *597:43 4
6 *597:20 *597:19 5.4
7 *597:20 *597:17 0.24
8 *597:31 *1147:A 4
9 *597:18 *597:17 0.9
10 *597:32 *597:31 0.6
11 *597:18 *597:21 0.48
12 *597:21 *1177:A 4
13 *597:13 *597:32 0.72
14 *597:13 *597:21 3.9
15 *597:14 *597:13 4.8
16 *597:36 *597:14 4
17 *597:37 *597:36 0.4
18 *597:46 *1153:A 0.465
19 *597:23 *597:37 4
20 *597:41 *1165:A 4
21 *597:15 *597:46 4
22 *597:15 *597:23 0.6
23 *597:41 *597:40 0.3
24 *597:16 *597:15 0.6
25 *597:38 *597:40 4
26 *597:35 *597:16 0.48
27 *597:39 *597:38 0.72
28 *597:45 *1171:A 0.225
29 *597:24 *597:35 1.8
30 *597:24 *597:39 4
31 *597:25 *597:45 4
32 *597:11 *1262:Y 4
33 *597:11 *597:24 0.3
34 *597:26 *597:25 0.6
35 *597:12 *597:11 9.6
36 *597:28 *597:26 1.2
37 *597:34 *597:12 4
38 *597:28 *597:27 0.6
39 *597:27 *1184:A 4
40 *597:34 *597:33 0.56
41 *597:22 *597:27 0.24
42 *597:9 *597:33 4
43 *597:22 *597:10 0.3
44 *597:10 *597:9 2.1
45 *597:44 *597:10 4
46 *1159:A *597:44 0.3
*END

*D_NET *598 0.278471

*CONN
*I *1255:Y O *C 30 271.5 *L 0 *D INVX4
*I *1185:B I *C 303.6 31.5 *L 0.033 *D OAI22X1
*I *1183:B I *C 87.6 58.5 *L 0.033 *D OAI22X1
*I *1178:B I *C 320.4 211.5 *L 0.033 *D OAI22X1
*I *1176:B I *C 99.6 238.5 *L 0.033 *D OAI22X1
*I *1172:B I *C 332.4 31.5 *L 0.033 *D OAI22X1
*I *1170:B I *C 190.8 31.5 *L 0.033 *D OAI22X1
*I *1166:B I *C 294 151.5 *L 0.033 *D OAI22X1
*I *1164:B I *C 195.6 151.5 *L 0.033 *D OAI22X1
*I *1160:B I *C 344.4 31.5 *L 0.033 *D OAI22X1
*I *1158:B I *C 63.6 31.5 *L 0.033 *D OAI22X1
*I *1154:B I *C 337.2 151.5 *L 0.033 *D OAI22X1
*I *1152:B I *C 202.8 211.5 *L 0.033 *D OAI22X1
*I *1148:B I *C 298.8 178.5 *L 0.033 *D OAI22X1
*I *1146:B I *C 99.6 151.5 *L 0.033 *D OAI22X1
*I *1142:B I *C 298.8 238.5 *L 0.033 *D OAI22X1
*I *1140:B I *C 193.2 271.5 *L 0.033 *D OAI22X1

*CAP
1 *1255:Y 0.00028335
2 *1185:B 0.00028335
3 *1183:B 0.00028335
4 *1178:B 0.00088113
5 *1176:B 0.00028335
6 *1172:B 0.00151817
7 *1170:B 0.00019498
8 *1166:B 0.00028335
9 *1164:B 0.000658
10 *1160:B 0.00028335
11 *1158:B 0.00028335
12 *1154:B 0.00155914
13 *1152:B 0.00019498
14 *1148:B 0.00040294
15 *1146:B 0.00019498
16 *1142:B 0.00028335
17 *1140:B 0.00040294
18 *598:17 0.00187614
19 *598:18 0.00292807
20 *598:19 0.00133528
21 *598:20 0.0004675
22 *598:21 0.0004675
23 *598:22 0.00077987
24 *598:23 0.00082972
25 *598:24 0.00850844
26 *598:25 0.00845859
27 *598:26 0.0118955
28 *598:27 0.0107721
29 *598:28 0.00081422
30 *598:29 0.00081422
31 *598:30 0.00082801
32 *598:31 0.00554492
33 *598:32 0.00554492
34 *598:33 0.00301256
35 *598:34 0.00306241
36 *598:35 0.00068826
37 *598:36 0.00068826
38 *598:37 0.00154922
39 *598:38 0.00154922
40 *598:39 0.00098667
41 *598:40 0.00098667
42 *598:41 0.00077988
43 *598:42 0.00077988
44 *598:43 0.00344774
45 *598:44 0.00318187
46 *598:45 0.00179283
47 *598:46 0.00179283
48 *598:47 0.012985
49 *598:48 0.00942006
50 *598:49 0.00474457
51 *598:50 0.00826804
52 *598:51 0.00099796
53 *598:52 0.00099796
54 *598:53 0.00132632
55 *598:54 0.00289174
56 *598:55 0.00226548
57 *598:56 0.00077244
58 *598:57 0.00077244
59 *598:58 0.00117266
60 *598:59 0.00117266
61 *598:60 0.00259264
62 *598:61 0.00071164
63 *598:62 0.00450546
64 *598:63 0.00567495
65 *598:64 0.00156224
66 *598:65 0.00172915
67 *598:66 0.00170745
68 *598:67 0.00170745
69 *598:68 0.00105114
70 *598:69 0.0025829
71 *598:70 0.0115044
72 *598:71 0.0104666
73 *598:72 0.00421562
74 *598:73 0.00561225
75 *598:74 0.00445988
76 *598:75 0.00140676
77 *598:76 0.00182982
78 *598:77 0.00182982
79 *598:78 0.00111536
80 *598:79 0.00142454
81 *598:80 0.00047919
82 *598:81 0.00238447
83 *598:82 0.00183815
84 *598:83 0.00179671
85 *598:84 0.00171595
86 *598:85 0.00191179
87 *598:86 0.00047919
88 *598:87 0.00694665
89 *598:88 0.011983
90 *598:89 0.00038987
91 *598:90 0.00038987
92 *598:91 0.00036499
93 *598:92 0.00140483
94 *598:93 0.00097769
95 *598:94 0.00097769
96 *598:95 0.0004903
97 *598:96 0.00036499
98 *598:97 0.00077987
99 *598:98 0.00077987
100 *598:99 0.00036499
101 *598:100 0.00057295
102 *598:101 0.00057295
103 *598:102 0.00202515
104 *598:103 0.00202515
105 *598:104 0.00172979
106 *598:105 0.00172979
107 *598:106 0.00542911
108 *598:87 *514:8 0.00149473
109 *598:88 *514:7 0.00149473
110 *598:88 *37:7 0.00139508
111 *598:106 *37:8 0.00139508
112 *598:87 *37:3 0.00055296
113 *598:88 *37:4 0.00055296
114 *598:88 *37:3 0.00037702
115 *598:106 *37:4 0.00037702
116 *598:82 *37:3 2.711e-05
117 *598:83 *37:4 2.711e-05
118 *598:69 *537:7 9.965e-05
119 *598:70 *537:6 9.965e-05
120 *598:70 *537:7 0.00129543
121 *598:71 *537:6 0.00129543
122 *598:72 *537:5 7.673e-05
123 *598:60 *537:4 7.673e-05
124 *598:60 *537:5 7.673e-05
125 *598:61 *537:4 7.673e-05
126 *598:53 *552:7 9.965e-05
127 *598:54 *552:6 9.965e-05
128 *598:54 *552:7 0.00119579
129 *598:55 *552:6 0.00119579
130 *598:35 *552:4 7.673e-05
131 *598:36 *552:5 7.673e-05
132 *598:43 *532:4 5.829e-05
133 *598:44 *532:5 5.829e-05
134 *598:53 *532:4 0.00059789
135 *598:54 *532:5 0.00059789
136 *598:54 *532:4 0.00139508
137 *598:55 *532:5 0.00139508
138 *598:37 *532:4 6.78e-06
139 *598:38 *532:5 6.78e-06

*RES
1 *598:101 *1140:B 0.465
2 *598:105 *1255:Y 4
3 *598:103 *598:101 4
4 *598:94 *1160:B 4
5 *598:104 *598:105 1.8
6 *598:102 *598:103 1.8
7 *598:68 *1178:B 0.945
8 *598:93 *598:94 0.9
9 *598:106 *598:104 4
10 *598:87 *598:102 4
11 *598:66 *598:68 4
12 *598:37 *598:93 4
13 *598:106 *598:88 2.32
14 *598:88 *598:87 2.96
15 *598:67 *598:66 1.5
16 *598:38 *598:37 0.4
17 *598:84 *598:88 4
18 *598:76 *598:67 4
19 *598:33 *1142:B 4
20 *598:40 *598:38 4
21 *598:85 *1176:B 4
22 *598:85 *598:84 1.5
23 *598:77 *598:76 0.48
24 *598:34 *598:33 3
25 *598:40 *598:39 0.9
26 *598:86 *598:85 0.3
27 *598:80 *598:77 4
28 *598:78 *598:34 0.24
29 *1172:B *598:39 4
30 *598:83 *598:86 4
31 *598:65 *1154:B 1.665
32 *598:80 *598:79 0.3
33 *598:79 *598:78 0.9
34 *598:83 *598:82 0.56
35 *598:42 *598:65 4
36 *598:81 *598:79 0.24
37 *598:100 *1148:B 0.465
38 *598:92 *1172:B 1.425
39 *598:95 *598:82 0.1
40 *598:99 *1152:B 0.225
41 *598:42 *598:41 0.6
42 *598:61 *1166:B 4
43 *598:72 *598:81 2.1
44 *598:72 *598:100 4
45 *598:57 *598:92 4
46 *1146:B *598:96 0.225
47 *598:22 *598:95 4
48 *598:31 *598:99 4
49 *598:69 *598:41 4
50 *598:61 *598:60 0.6
51 *598:60 *598:72 2.1
52 *598:30 *1164:B 0.72
53 *598:36 *1185:B 4
54 *598:57 *598:56 0.6
55 *598:97 *598:96 4
56 *598:23 *598:22 0.6
57 *598:32 *598:31 5.4
58 *598:70 *598:69 0.88
59 *598:70 *598:60 4
60 *598:29 *598:30 4
61 *598:36 *598:35 0.6
62 *598:53 *598:56 4
63 *598:98 *598:97 0.6
64 *598:24 *598:23 0.24
65 *598:71 *598:32 4
66 *598:71 *598:70 3.12
67 *598:29 *598:28 0.6
68 *598:54 *598:35 4
69 *598:54 *598:53 0.48
70 *598:64 *598:98 4
71 *598:25 *598:24 8.1
72 *598:73 *598:71 0.4
73 *598:73 *598:28 4
74 *598:55 *598:54 1.12
75 *598:20 *1158:B 4
76 *598:90 *1183:B 4
77 *598:64 *598:63 0.4
78 *598:63 *598:25 4
79 *598:74 *598:73 1.2
80 *598:55 *598:43 0.2
81 *598:91 *1170:B 0.225
82 *598:21 *598:20 0.3
83 *598:89 *598:90 0.24
84 *598:63 *598:62 1.28
85 *598:75 *598:74 4
86 *598:44 *598:43 1.12
87 *598:52 *598:91 4
88 *598:46 *598:21 4
89 *598:58 *598:89 4
90 *598:26 *598:62 4
91 *598:26 *598:75 1.2
92 *598:49 *598:44 0.1
93 *598:52 *598:51 0.9
94 *598:46 *598:45 0.48
95 *598:59 *598:58 0.24
96 *598:27 *598:26 10.5
97 *598:50 *598:49 1.6
98 *598:50 *598:51 4
99 *598:19 *598:45 4
100 *598:17 *598:59 4
101 *598:47 *598:27 4
102 *598:47 *598:50 1.2
103 *598:19 *598:18 1.2
104 *598:18 *598:17 1.8
105 *598:48 *598:47 2.48
106 *598:48 *598:18 4
*END

*D_NET *599 0.258872

*CONN
*I *1253:Y O *C 44.4 271.5 *L 0 *D INVX4
*I *1185:D I *C 308.4 31.5 *L 0.0332 *D OAI22X1
*I *1183:D I *C 82.8 58.5 *L 0.0332 *D OAI22X1
*I *1178:D I *C 325.2 211.5 *L 0.0332 *D OAI22X1
*I *1176:D I *C 94.8 238.5 *L 0.0332 *D OAI22X1
*I *1172:D I *C 337.2 31.5 *L 0.0332 *D OAI22X1
*I *1170:D I *C 195.6 31.5 *L 0.0332 *D OAI22X1
*I *1166:D I *C 298.8 151.5 *L 0.0332 *D OAI22X1
*I *1164:D I *C 200.4 151.5 *L 0.0332 *D OAI22X1
*I *1160:D I *C 349.2 31.5 *L 0.0332 *D OAI22X1
*I *1158:D I *C 68.4 31.5 *L 0.0332 *D OAI22X1
*I *1154:D I *C 342 151.5 *L 0.0332 *D OAI22X1
*I *1152:D I *C 207.6 211.5 *L 0.0332 *D OAI22X1
*I *1148:D I *C 303.6 178.5 *L 0.0332 *D OAI22X1
*I *1146:D I *C 94.8 151.5 *L 0.0332 *D OAI22X1
*I *1142:D I *C 303.6 238.5 *L 0.0332 *D OAI22X1
*I *1140:D I *C 198 271.5 *L 0.0332 *D OAI22X1

*CAP
1 *1253:Y 0.00044597
2 *1185:D 0.00028335
3 *1183:D 0.00028335
4 *1178:D 0.00028335
5 *1176:D 0.00028335
6 *1172:D 0.00028335
7 *1170:D 0.00028335
8 *1166:D 0.00028335
9 *1164:D 0.00028335
10 *1160:D 0.00028335
11 *1158:D 0.00028335
12 *1154:D 0.00028335
13 *1152:D 0.00028335
14 *1148:D 0.00028335
15 *1146:D 0.00028335
16 *1142:D 0.00028335
17 *1140:D 0.00028335
18 *599:17 0.00077668
19 *599:18 0.00077668
20 *599:19 0.0109485
21 *599:20 0.00222487
22 *599:21 0.00375817
23 *599:22 0.0018665
24 *599:23 0.00743458
25 *599:24 0.00743458
26 *599:25 0.00138973
27 *599:26 0.00138973
28 *599:27 0.00543893
29 *599:28 0.00538908
30 *599:29 0.00168105
31 *599:30 0.00168105
32 *599:31 0.0004283
33 *599:32 0.00191179
34 *599:33 0.00181669
35 *599:34 0.00394216
36 *599:35 0.00394216
37 *599:36 0.00238368
38 *599:37 0.00243039
39 *599:38 0.00118395
40 *599:39 0.00166263
41 *599:40 0.0013848
42 *599:41 0.0013848
43 *599:42 0.00922453
44 *599:43 0.00922453
45 *599:44 0.00102902
46 *599:45 0.00102902
47 *599:46 0.00161076
48 *599:47 0.00161076
49 *599:48 0.00087143
50 *599:49 0.00195579
51 *599:50 0.00195579
52 *599:51 0.014977
53 *599:52 0.00181398
54 *599:53 0.00101024
55 *599:54 0.00662066
56 *599:55 0.00461566
57 *599:56 0.00956178
58 *599:57 0.00602932
59 *599:58 0.00381609
60 *599:59 0.00227354
61 *599:60 0.00597165
62 *599:61 0.00371073
63 *599:62 0.00154035
64 *599:63 0.00154035
65 *599:64 0.0013521
66 *599:65 0.00100727
67 *599:66 0.00100727
68 *599:67 0.00228334
69 *599:68 0.00379078
70 *599:69 0.00210251
71 *599:70 0.00212674
72 *599:71 0.0016731
73 *599:72 0.00172295
74 *599:73 0.00110796
75 *599:74 0.00141714
76 *599:75 0.00148873
77 *599:76 0.00148873
78 *599:77 0.00075616
79 *599:78 0.00075616
80 *599:79 0.00217502
81 *599:80 0.00218021
82 *599:81 0.00218021
83 *599:82 0.00192684
84 *599:83 0.00192684
85 *599:84 0.00435023
86 *599:85 0.00435023
87 *599:86 0.00236494
88 *599:87 0.00236494
89 *599:88 0.00044166
90 *599:89 0.00044166
91 *599:90 0.00055248
92 *599:91 0.0004491
93 *599:92 0.00047919
94 *599:93 0.00077987
95 *599:94 0.00127247
96 *599:95 0.00077595
97 *599:96 0.00038987
98 *599:97 0.00243695
99 *599:98 0.00243695
100 *599:99 0.00038673
101 *599:100 0.00038673
102 *599:101 0.00038673
103 *599:102 0.0062534
104 *599:103 0.00270451
105 *599:104 0.00270451
106 *599:105 0.00061598
107 *599:106 0.00151015
108 *599:107 0.00151015
109 *599:61 *495:8 0.00029895
110 *599:58 *495:7 0.00029895
111 *599:58 *495:8 0.0003986
112 *599:59 *495:7 0.0003986
113 *599:52 *495:6 1.126e-05
114 *599:53 *495:4 1.126e-05
115 *599:38 *532:4 0.00059789
116 *599:39 *532:5 0.00059789
117 *599:39 *532:4 0.0003986
118 *599:48 *532:5 0.0003986
119 *599:40 *532:4 5.027e-05
120 *599:41 *532:5 5.027e-05
121 *599:38 *41:5 2.711e-05
122 *599:39 *41:2 2.711e-05
123 *599:40 *41:5 2.331e-05
124 *599:41 *41:2 2.331e-05
125 *599:42 *41:11 0.00283918
126 *599:43 *41:3 0.00283918
127 *599:44 *41:10 1.98e-05
128 *599:45 *41:9 1.98e-05
129 *599:36 *41:10 4.34e-06
130 *599:37 *41:9 4.34e-06
131 *599:36 *41:7 6.754e-05
132 *599:37 *41:6 6.754e-05
133 *599:67 *522:7 0.00069061
134 *599:68 *522:8 0.00069061
135 *599:68 *522:7 7.673e-05
136 *599:69 *522:8 7.673e-05
137 *599:27 *525:3 9.324e-05
138 *599:28 *525:2 9.324e-05
139 *599:31 *525:3 7.673e-05
140 *599:32 *525:2 7.673e-05
141 *599:32 *525:3 0.00053714
142 *599:33 *525:2 0.00053714

*RES
1 *599:88 *1160:D 4
2 *599:44 *1178:D 4
3 *599:89 *599:88 0.3
4 *599:45 *599:44 0.9
5 *1253:Y *599:105 0.48
6 *599:80 *1140:D 4
7 *599:40 *599:89 4
8 *599:103 *599:45 4
9 *599:36 *1142:D 4
10 *599:107 *599:105 4
11 *599:81 *599:80 1.8
12 *599:41 *599:40 0.4
13 *599:104 *599:103 0.64
14 *599:37 *599:36 2.4
15 *599:106 *599:107 1.2
16 *599:83 *599:81 4
17 *599:91 *599:41 4
18 *599:92 *599:104 4
19 *599:37 *599:73 0.24
20 *599:85 *599:106 4
21 *599:83 *599:82 0.48
22 *599:99 *1185:D 4
23 *599:91 *599:90 0.3
24 *599:90 *1172:D 4
25 *599:92 *599:74 0.3
26 *599:74 *599:73 0.9
27 *599:85 *599:84 1.52
28 *599:34 *599:82 4
29 *599:99 *599:100 0.24
30 *599:101 *599:90 0.24
31 *599:67 *599:74 0.24
32 *599:79 *599:84 4
33 *599:35 *599:34 3.9
34 *599:48 *599:100 4
35 *599:38 *599:101 4
36 *599:68 *1148:D 4
37 *599:68 *599:67 2.7
38 *599:30 *1170:D 4
39 *599:18 *1158:D 4
40 *599:21 *1176:D 4
41 *599:21 *599:79 2.1
42 *599:77 *599:35 4
43 *599:48 *599:39 0.32
44 *599:39 *599:38 0.48
45 *599:65 *1154:D 4
46 *599:69 *599:68 1.8
47 *599:30 *599:29 1.5
48 *599:18 *599:17 0.6
49 *599:22 *599:21 1.8
50 *599:78 *599:77 0.16
51 *599:43 *599:39 4
52 *599:66 *599:65 0.9
53 *599:64 *599:69 0.48
54 *599:86 *599:29 4
55 *599:47 *599:17 4
56 *599:75 *599:22 4
57 *599:31 *599:78 4
58 *599:43 *599:42 11.1
59 *599:70 *599:66 4
60 *599:52 *1166:D 4
61 *599:52 *599:64 0.9
62 *599:87 *599:86 0.64
63 *599:47 *599:46 0.4
64 *599:76 *599:75 0.32
65 *599:32 *1152:D 4
66 *599:32 *599:31 0.3
67 *599:61 *599:42 4
68 *599:61 *599:70 0.72
69 *599:53 *599:52 0.9
70 *599:50 *599:87 4
71 *599:96 *599:46 4
72 *599:71 *599:76 4
73 *599:33 *599:32 2.1
74 *599:58 *599:61 0.72
75 *599:58 *599:53 4
76 *599:50 *599:49 1.8
77 *599:96 *599:20 0.24
78 *599:72 *599:71 1.5
79 *599:33 *599:27 0.24
80 *599:59 *599:58 0.8
81 *599:97 *599:49 4
82 *599:19 *1183:D 4
83 *599:20 *599:19 2.1
84 *599:102 *599:72 0.24
85 *599:28 *599:27 5.1
86 *599:60 *599:59 0.1
87 *599:25 *1164:D 4
88 *599:98 *599:97 0.56
89 *599:19 *599:51 8.7
90 *599:51 *599:102 6
91 *599:54 *599:28 4
92 *599:54 *599:60 2.16
93 *599:26 *599:25 1.2
94 *599:24 *599:98 4
95 *599:63 *599:51 4
96 *599:55 *599:54 0.32
97 *599:55 *599:26 4
98 *599:24 *599:23 7.5
99 *599:63 *599:62 0.4
100 *599:93 *1146:D 4
101 *599:56 *599:55 1.36
102 *599:56 *599:23 4
103 *599:94 *599:62 4
104 *599:94 *599:93 0.6
105 *599:57 *599:56 2.16
106 *599:95 *599:94 0.6
107 *599:95 *599:57 4
*END

*D_NET *600 0.0702692

*CONN
*I *1259:Y O *C 248.4 178.5 *L 0 *D INVX2
*I *1134:A I *C 265.2 118.5 *L 0.0323 *D AOI21X1
*I *1127:A I *C 262.8 298.5 *L 0.0323 *D AOI21X1
*I *1121:A I *C 272.4 91.5 *L 0.0323 *D AOI21X1
*I *1115:A I *C 272.4 151.5 *L 0.0323 *D AOI21X1
*I *1109:A I *C 262.8 91.5 *L 0.0323 *D AOI21X1
*I *1103:A I *C 260.4 211.5 *L 0.0323 *D AOI21X1
*I *1097:A I *C 270 238.5 *L 0.0323 *D AOI21X1
*I *1091:A I *C 262.8 331.5 *L 0.0323 *D AOI21X1

*CAP
1 *1259:Y 0.00020796
2 *1134:A 0.00028335
3 *1127:A 0.00028335
4 *1121:A 0.00028335
5 *1115:A 0.00028335
6 *1109:A 0.00028335
7 *1103:A 0.00028335
8 *1097:A 0.00028335
9 *1091:A 0.00028335
10 *600:9 0.00189657
11 *600:10 0.00201672
12 *600:11 0.00045335
13 *600:12 0.00217221
14 *600:13 0.00360866
15 *600:14 0.0017198
16 *600:15 0.00216684
17 *600:16 0.00221669
18 *600:17 0.00575972
19 *600:18 0.00593155
20 *600:19 0.00099593
21 *600:20 0.00077607
22 *600:21 0.00241003
23 *600:22 0.00551931
24 *600:23 0.00050503
25 *600:24 0.00047919
26 *600:25 0.00047919
27 *600:26 0.00127332
28 *600:27 0.00127332
29 *600:28 0.00393206
30 *600:29 0.00162164
31 *600:30 0.00112524
32 *600:31 0.00324413
33 *600:32 0.00357051
34 *600:33 0.00129187
35 *600:34 0.00129187
36 *600:35 0.00206597
37 *600:36 0.00117773
38 *600:37 0.00128099
39 *600:38 0.00129469
40 *600:39 0.00129469
41 *600:40 0.0004737
42 *600:41 0.00043575
43 *600:12 *480:2 0.00053714
44 *600:13 *480:3 0.00053714
45 *600:13 *480:2 0.00046041
46 *600:14 *480:3 0.00046041
47 *600:26 *480:2 2.251e-05
48 *600:27 *480:3 2.251e-05

*RES
1 *600:31 *1091:A 4
2 *600:32 *1127:A 4
3 *600:32 *600:31 3.3
4 *600:32 *600:19 0.48
5 *600:20 *600:19 0.6
6 *600:20 *600:17 0.24
7 *600:18 *1097:A 4
8 *600:18 *600:17 5.4
9 *600:23 *600:18 0.3
10 *1259:Y *600:40 0.24
11 *600:38 *600:23 4
12 *600:40 *600:41 0.3
13 *600:39 *600:38 0.32
14 *600:27 *600:41 4
15 *600:12 *600:39 4
16 *600:27 *600:26 1.2
17 *600:13 *1103:A 4
18 *600:13 *600:12 2.4
19 *600:36 *600:26 4
20 *600:14 *600:13 1.8
21 *600:36 *600:35 0.32
22 *600:35 *600:14 4
23 *600:35 *600:37 0.32
24 *600:15 *600:37 4
25 *600:16 *600:15 2.1
26 *600:16 *600:21 0.24
27 *600:24 *1121:A 4
28 *600:22 *1115:A 4
29 *600:22 *600:21 2.1
30 *600:25 *600:24 0.3
31 *600:28 *600:22 3.3
32 *600:33 *600:25 4
33 *600:29 *1134:A 4
34 *600:29 *600:28 0.72
35 *600:34 *600:33 0.32
36 *600:30 *600:29 0.9
37 *600:11 *600:34 4
38 *600:9 *600:30 0.24
39 *600:11 *600:10 0.3
40 *600:10 *600:9 1.8
41 *1109:A *600:10 4
*END

*D_NET *601 0.232655

*CONN
*I *1254:Y O *C 97.2 298.5 *L 0 *D INVX2
*I *1135:B I *C 303.6 91.5 *L 0.033 *D OAI22X1
*I *1133:B I *C 97.2 118.5 *L 0.033 *D OAI22X1
*I *1128:B I *C 315.6 238.5 *L 0.033 *D OAI22X1
*I *1126:B I *C 106.8 271.5 *L 0.033 *D OAI22X1
*I *1122:B I *C 337.2 58.5 *L 0.033 *D OAI22X1
*I *1120:B I *C 190.8 58.5 *L 0.033 *D OAI22X1
*I *1116:B I *C 303.6 118.5 *L 0.033 *D OAI22X1
*I *1114:B I *C 195.6 118.5 *L 0.033 *D OAI22X1
*I *1110:B I *C 337.2 91.5 *L 0.033 *D OAI22X1
*I *1108:B I *C 104.4 58.5 *L 0.033 *D OAI22X1
*I *1104:B I *C 332.4 178.5 *L 0.033 *D OAI22X1
*I *1102:B I *C 195.6 238.5 *L 0.033 *D OAI22X1
*I *1098:B I *C 310.8 178.5 *L 0.033 *D OAI22X1
*I *1096:B I *C 104.4 178.5 *L 0.033 *D OAI22X1
*I *1092:B I *C 301.2 271.5 *L 0.033 *D OAI22X1
*I *1090:B I *C 195.6 298.5 *L 0.033 *D OAI22X1

*CAP
1 *1254:Y 0.00019498
2 *1135:B 0.00028335
3 *1133:B 0.00038994
4 *1128:B 0.00068629
5 *1126:B 0.00028335
6 *1122:B 0.00042921
7 *1120:B 0.00043109
8 *1116:B 0.00028335
9 *1114:B 0.00028335
10 *1110:B 0.00040294
11 *1108:B 0.00028335
12 *1104:B 0.00028335
13 *1102:B 0.00020796
14 *1098:B 0.00028335
15 *1096:B 0.00028335
16 *1092:B 0.00028335
17 *1090:B 0.00020796
18 *601:17 0.00078412
19 *601:18 0.00078412
20 *601:19 0.00580433
21 *601:20 0.00607404
22 *601:21 0.00257228
23 *601:22 0.00252243
24 *601:23 0.00343548
25 *601:24 0.00172692
26 *601:25 0.0041275
27 *601:26 0.0041275
28 *601:27 0.0013877
29 *601:28 0.0013877
30 *601:29 0.001785
31 *601:30 0.00195075
32 *601:31 0.0004491
33 *601:32 0.00151159
34 *601:33 0.00047919
35 *601:34 0.00614891
36 *601:35 0.00637059
37 *601:36 0.00318531
38 *601:37 0.00318531
39 *601:38 0.00078102
40 *601:39 0.00078102
41 *601:40 0.00059922
42 *601:41 0.0006011
43 *601:42 0.00327007
44 *601:43 0.00327007
45 *601:44 0.00518013
46 *601:45 0.00513869
47 *601:46 0.00212087
48 *601:47 0.00212087
49 *601:48 0.00235239
50 *601:49 0.00209161
51 *601:50 0.00131999
52 *601:51 0.0105154
53 *601:52 0.00364499
54 *601:53 0.00313458
55 *601:54 0.00309688
56 *601:55 0.00290104
57 *601:56 0.00050503
58 *601:57 0.00261541
59 *601:58 0.00261541
60 *601:59 0.00047494
61 *601:60 0.00047494
62 *601:61 0.0018298
63 *601:62 0.0018298
64 *601:63 0.0053577
65 *601:64 0.00555354
66 *601:65 0.0019757
67 *601:66 0.0019757
68 *601:67 0.0020666
69 *601:68 0.00163663
70 *601:69 0.00136618
71 *601:70 0.0062476
72 *601:71 0.00516477
73 *601:72 0.00127003
74 *601:73 0.00127003
75 *601:74 0.0169392
76 *601:75 0.00806649
77 *601:76 0.00926542
78 *601:77 0.00086789
79 *601:78 0.00086789
80 *601:79 0.00055995
81 *601:80 0.00044713
82 *601:81 0.00049698
83 *601:82 0.00996357
84 *601:83 0.00170743
85 *601:84 0.00141783
86 *601:85 0.00037797
87 *601:86 0.00066868
88 *601:87 0.00037797
89 *601:88 0.00043575
90 *601:89 0.00036499
91 *601:90 0.00071332
92 *601:76 *501:6 0.00060323
93 *601:74 *501:7 0.00060323
94 *601:74 *501:6 0.00060323
95 *601:75 *501:7 0.00060323
96 *601:82 *302:22 0.00109614
97 *601:51 *302:23 0.00109614
98 *601:82 *302:23 0.00298946
99 *601:51 *302:24 0.00298946
100 *601:82 *302:24 0.0003986
101 *601:51 *302:37 0.0003986
102 *601:51 *302:24 0.0003986
103 *601:52 *302:37 0.0003986
104 *601:52 *302:24 0.00059789
105 *601:53 *302:37 0.00059789
106 *601:25 *498:2 0.00092081
107 *601:26 *498:3 0.00092081
108 *601:21 *488:4 0.00069061
109 *601:22 *488:5 0.00069061
110 *601:23 *488:2 1.126e-05
111 *601:24 *488:3 1.126e-05
112 *601:21 *488:2 2.331e-05
113 *601:22 *488:3 2.331e-05

*RES
1 *1254:Y *601:89 0.225
2 *601:17 *601:89 4
3 *601:18 *601:17 0.6
4 *601:78 *601:18 4
5 *601:78 *601:77 0.24
6 *601:85 *1102:B 0.24
7 *601:87 *1090:B 0.24
8 *601:68 *1126:B 4
9 *601:90 *601:77 4
10 *601:71 *601:85 4
11 *601:69 *601:87 4
12 *601:68 *601:67 1.5
13 *601:67 *601:90 0.6
14 *601:71 *601:70 4.8
15 *601:70 *601:69 1.2
16 *601:75 *601:67 4
17 *601:74 *601:70 4
18 *601:75 *601:74 2.88
19 *601:74 *601:76 3.6
20 *601:29 *601:76 4
21 *601:30 *1092:B 4
22 *601:30 *601:29 1.5
23 *601:31 *601:30 0.3
24 *601:73 *601:31 4
25 *601:73 *601:72 0.32
26 *601:36 *601:72 4
27 *601:37 *601:36 2.7
28 *601:88 *601:37 4
29 *601:86 *601:88 0.3
30 *601:86 *1128:B 0.465
31 *601:38 *1128:B 4
32 *601:39 *601:38 0.6
33 *601:59 *1098:B 4
34 *601:66 *601:39 4
35 *601:60 *601:59 0.3
36 *601:66 *601:65 0.56
37 *601:58 *601:60 4
38 *601:63 *601:65 4
39 *601:40 *1122:B 0.465
40 *601:58 *601:57 0.72
41 *601:64 *1104:B 4
42 *601:64 *601:63 5.4
43 *601:43 *601:40 4
44 *601:54 *601:57 4
45 *601:54 *601:64 0.3
46 *601:43 *601:42 3.3
47 *601:55 *601:54 2.7
48 *601:83 *601:42 4
49 *601:83 *1110:B 0.465
50 *601:61 *601:55 4
51 *601:84 *601:83 1.44
52 *601:62 *601:61 0.48
53 *601:56 *601:84 4
54 *601:34 *601:62 4
55 *601:56 *601:35 0.3
56 *601:35 *601:34 5.4
57 *601:46 *601:35 4
58 *601:33 *1135:B 4
59 *601:47 *601:46 0.48
60 *601:33 *601:32 0.3
61 *601:32 *601:47 4
62 *601:50 *1116:B 4
63 *601:41 *1120:B 0.465
64 *601:32 *601:48 1.2
65 *601:48 *601:50 1.2
66 *601:27 *1114:B 4
67 *1133:B *601:79 0.45
68 *601:26 *601:41 4
69 *601:82 *601:48 4
70 *601:28 *601:27 1.2
71 *601:80 *601:79 4
72 *601:26 *601:25 4.8
73 *601:51 *601:82 3.6
74 *601:51 *601:28 4
75 *601:22 *1108:B 4
76 *601:80 *601:81 0.3
77 *601:19 *1096:B 4
78 *601:52 *601:25 4
79 *601:52 *601:51 0.32
80 *601:22 *601:21 3
81 *601:81 *601:20 0.24
82 *601:20 *601:19 5.7
83 *601:53 *601:52 1.2
84 *601:21 *601:24 0.24
85 *601:20 *601:49 0.24
86 *601:44 *601:53 0.1
87 *601:24 *601:23 1.5
88 *601:23 *601:49 1.8
89 *601:45 *601:44 1.44
90 *601:45 *601:23 4
*END

*D_NET *602 0.236875

*CONN
*I *1252:Y O *C 106.8 298.5 *L 0 *D INVX4
*I *1135:D I *C 308.4 91.5 *L 0.0332 *D OAI22X1
*I *1133:D I *C 92.4 118.5 *L 0.0332 *D OAI22X1
*I *1128:D I *C 320.4 238.5 *L 0.0332 *D OAI22X1
*I *1126:D I *C 102 271.5 *L 0.0332 *D OAI22X1
*I *1122:D I *C 342 58.5 *L 0.0332 *D OAI22X1
*I *1120:D I *C 195.6 58.5 *L 0.0332 *D OAI22X1
*I *1116:D I *C 308.4 118.5 *L 0.0332 *D OAI22X1
*I *1114:D I *C 200.4 118.5 *L 0.0332 *D OAI22X1
*I *1110:D I *C 342 91.5 *L 0.0332 *D OAI22X1
*I *1108:D I *C 99.6 58.5 *L 0.0332 *D OAI22X1
*I *1104:D I *C 337.2 178.5 *L 0.0332 *D OAI22X1
*I *1102:D I *C 200.4 238.5 *L 0.0332 *D OAI22X1
*I *1098:D I *C 315.6 178.5 *L 0.0332 *D OAI22X1
*I *1096:D I *C 99.6 178.5 *L 0.0332 *D OAI22X1
*I *1092:D I *C 306 271.5 *L 0.0332 *D OAI22X1
*I *1090:D I *C 200.4 298.5 *L 0.0332 *D OAI22X1

*CAP
1 *1252:Y 0.00041594
2 *1135:D 0.00028335
3 *1133:D 0.00028335
4 *1128:D 0.00028335
5 *1126:D 0.00028335
6 *1122:D 0.00028335
7 *1120:D 0.00028335
8 *1116:D 0.00028335
9 *1114:D 0.00028335
10 *1110:D 0.00028335
11 *1108:D 0.00028335
12 *1104:D 0.00028335
13 *1102:D 0.00028335
14 *1098:D 0.00028335
15 *1096:D 0.00028335
16 *1092:D 0.00028335
17 *1090:D 0.00028335
18 *602:17 0.00654448
19 *602:18 0.00659433
20 *602:19 0.00081422
21 *602:20 0.00081422
22 *602:21 0.00385225
23 *602:22 0.00874787
24 *602:23 0.0111874
25 *602:24 0.00156496
26 *602:25 0.00101871
27 *602:26 0.00673153
28 *602:27 0.00050503
29 *602:28 0.00238722
30 *602:29 0.00185706
31 *602:30 0.00257662
32 *602:31 0.00105276
33 *602:32 0.00338428
34 *602:33 0.00343413
35 *602:34 0.00114924
36 *602:35 0.00114924
37 *602:36 0.00103425
38 *602:37 0.00130396
39 *602:38 0.00513315
40 *602:39 0.00513315
41 *602:40 0.0013847
42 *602:41 0.0013847
43 *602:42 0.00220671
44 *602:43 0.00239633
45 *602:44 0.00270618
46 *602:45 0.00192632
47 *602:46 0.0018081
48 *602:47 0.00418956
49 *602:48 0.00266481
50 *602:49 0.0134472
51 *602:50 0.0123285
52 *602:51 0.00112073
53 *602:52 0.00106321
54 *602:53 0.00657876
55 *602:54 0.00639461
56 *602:55 0.00056027
57 *602:56 0.00240693
58 *602:57 0.00727431
59 *602:58 0.00727431
60 *602:59 0.00254947
61 *602:60 0.00250201
62 *602:61 0.00552451
63 *602:62 0.00570866
64 *602:63 0.00163005
65 *602:64 0.00163005
66 *602:65 0.00151882
67 *602:66 0.00151882
68 *602:67 0.00047297
69 *602:68 0.00236138
70 *602:69 0.00047919
71 *602:70 0.00180481
72 *602:71 0.00180481
73 *602:72 0.00117265
74 *602:73 0.00117265
75 *602:74 0.00106575
76 *602:75 0.00106575
77 *602:76 0.00103397
78 *602:77 0.0080659
79 *602:78 0.00746612
80 *602:79 0.00060973
81 *602:80 0.00038673
82 *602:81 0.00038673
83 *602:82 0.00049632
84 *602:83 0.00047919
85 *602:84 0.00047919
86 *602:85 0.00058595
87 *602:86 0.0004903
88 *602:76 *472:6 0.00029895
89 *602:77 *472:7 0.00029895
90 *602:77 *472:6 0.00199298
91 *602:78 *472:7 0.00199298
92 *602:36 *472:2 7.673e-05
93 *602:37 *472:3 7.673e-05
94 *602:63 *293:2 0.00069754
95 *602:64 *293:3 0.00069754
96 *602:55 *1:27 0.0001993
97 *602:56 *1:28 0.0001993
98 *602:56 *1:27 0.00119579
99 *602:49 *1:28 0.00119579
100 *602:49 *1:27 0.00089684
101 *602:50 *1:28 0.00089684
102 *602:57 *1:12 0.00298946
103 *602:58 *1:13 0.00298946
104 *602:57 *1:13 0.00099649
105 *602:58 *1:18 0.00099649
106 *602:47 *500:4 0.00084408
107 *602:48 *500:5 0.00084408

*RES
1 *602:40 *1092:D 4
2 *602:41 *602:40 1.2
3 *602:79 *1102:D 4
4 *602:66 *602:41 4
5 *602:79 *602:39 0.48
6 *602:66 *602:65 0.48
7 *602:39 *602:38 4.8
8 *602:42 *602:65 4
9 *602:38 *602:37 0.48
10 *602:43 *1128:D 4
11 *602:43 *602:42 2.1
12 *602:37 *602:36 0.9
13 *602:83 *1090:D 4
14 *602:67 *602:43 0.3
15 *602:80 *1098:D 4
16 *602:76 *602:36 4
17 *602:84 *602:83 0.3
18 *602:64 *602:67 4
19 *602:80 *602:81 0.24
20 *602:77 *602:76 0.32
21 *602:77 *602:84 4
22 *602:64 *602:63 0.56
23 *602:60 *602:81 4
24 *602:78 *602:77 3.04
25 *602:61 *602:63 4
26 *602:60 *602:59 0.64
27 *602:48 *1122:D 4
28 *602:78 *602:74 0.1
29 *602:62 *1104:D 4
30 *602:62 *602:61 5.7
31 *602:82 *602:59 0.1
32 *602:48 *602:47 3.3
33 *602:47 *1110:D 4
34 *602:85 *1252:Y 0.48
35 *602:75 *602:74 0.24
36 *602:53 *602:62 0.3
37 *602:53 *602:82 4
38 *602:47 *602:46 1.8
39 *602:27 *602:85 4
40 *602:86 *602:75 0.1
41 *602:45 *1135:D 4
42 *602:52 *1116:D 4
43 *602:54 *602:53 6.6
44 *602:55 *602:46 4
45 *602:69 *1126:D 4
46 *602:28 *602:27 0.3
47 *602:28 *602:86 4
48 *602:34 *1114:D 4
49 *602:45 *602:44 1.8
50 *602:44 *602:52 0.9
51 *602:56 *602:54 4
52 *602:56 *602:55 0.16
53 *602:69 *602:68 0.3
54 *602:68 *602:28 2.1
55 *602:35 *602:34 0.9
56 *602:49 *602:44 4
57 *602:49 *602:56 0.96
58 *602:70 *602:68 4
59 *602:50 *602:35 4
60 *602:50 *602:49 3.6
61 *602:19 *1096:D 4
62 *602:71 *602:70 0.4
63 *602:51 *602:50 0.24
64 *602:20 *602:19 0.6
65 *602:17 *602:71 4
66 *602:32 *602:51 4
67 *602:72 *602:20 4
68 *602:18 *602:17 6.3
69 *602:33 *602:32 3.3
70 *602:73 *602:72 0.24
71 *602:18 *602:21 0.24
72 *602:33 *602:29 0.24
73 *602:22 *602:73 4
74 *602:22 *602:21 3.9
75 *602:30 *1120:D 4
76 *602:30 *602:29 1.8
77 *602:23 *1133:D 4
78 *602:23 *602:22 5.4
79 *602:31 *602:30 0.9
80 *602:26 *602:23 6
81 *602:57 *602:31 4
82 *602:26 *602:24 0.72
83 *602:24 *1108:D 4
84 *602:58 *602:57 3.2
85 *602:25 *602:24 0.9
86 *602:25 *602:58 4
*END

*D_NET *603 0.0413034

*CONN
*I *1258:Y O *C 447.6 31.5 *L 0 *D INVX2
*I *895:D I *C 411.6 91.5 *L 0.0332 *D OAI22X1
*I *880:D I *C 406.8 58.5 *L 0.0332 *D OAI22X1
*I *872:D I *C 399.6 91.5 *L 0.0332 *D OAI22X1
*I *864:D I *C 450 58.5 *L 0.0332 *D OAI22X1
*I *856:D I *C 411.6 31.5 *L 0.0332 *D OAI22X1
*I *848:D I *C 440.4 31.5 *L 0.0332 *D OAI22X1
*I *840:D I *C 411.6 118.5 *L 0.0332 *D OAI22X1
*I *832:D I *C 438 58.5 *L 0.0332 *D OAI22X1

*CAP
1 *1258:Y 0.00018198
2 *895:D 0.00028335
3 *880:D 0.00028335
4 *872:D 0.00028335
5 *864:D 0.00028335
6 *856:D 0.00028335
7 *848:D 0.00028335
8 *840:D 0.00028335
9 *832:D 0.00028335
10 *603:9 0.00284076
11 *603:10 0.00299719
12 *603:11 0.00369287
13 *603:12 0.00268633
14 *603:13 0.00109823
15 *603:14 0.00137163
16 *603:15 0.00139929
17 *603:16 0.00099834
18 *603:17 0.00268989
19 *603:18 0.00223834
20 *603:19 0.0007349
21 *603:20 0.0007349
22 *603:21 0.00078837
23 *603:22 0.00180841
24 *603:23 0.0013501
25 *603:24 0.00298126
26 *603:25 0.00330137
27 *603:26 0.000446
28 *603:27 0.000446
29 *603:28 0.00119603
30 *603:29 0.00065231
31 *603:30 0.00025963
32 *603:31 0.00074724
33 *603:32 0.00043978
34 *603:33 0.00035199
35 *603:34 0.00060346

*RES
1 *603:9 *840:D 4
2 *603:26 *872:D 4
3 *603:10 *895:D 4
4 *603:10 *603:9 2.7
5 *603:33 *1258:Y 0.21
6 *603:27 *603:26 0.3
7 *603:32 *603:10 0.3
8 *603:34 *603:33 4
9 *603:30 *603:27 4
10 *603:31 *603:32 4
11 *603:14 *848:D 4
12 *603:14 *603:34 0.48
13 *603:29 *603:28 0.226667
14 *603:30 *603:29 0.0133333
15 *603:28 *603:31 0.16
16 *603:14 *603:13 0.9
17 *603:19 *864:D 4
18 *603:24 *603:28 4
19 *603:23 *603:13 0.24
20 *603:21 *832:D 4
21 *603:20 *603:19 0.6
22 *603:25 *880:D 4
23 *603:25 *603:24 3
24 *603:23 *603:22 1.2
25 *603:22 *603:21 0.6
26 *603:15 *603:20 4
27 *603:18 *856:D 4
28 *603:25 *603:16 0.48
29 *603:11 *603:22 4
30 *603:11 *603:15 0.4
31 *603:18 *603:17 2.1
32 *603:17 *603:16 0.6
33 *603:12 *603:11 0.88
34 *603:12 *603:17 4
*END

*D_NET *604 0.0906511

*CONN
*I *1246:Y O *C 42 151.5 *L 0 *D INVX2
*I *894:A I *C 135.6 235.5 *L 0.0323 *D OAI22X1
*I *879:A I *C 37.2 214.5 *L 0.0323 *D OAI22X1
*I *871:A I *C 135.6 214.5 *L 0.0323 *D OAI22X1
*I *863:A I *C 34.8 94.5 *L 0.0323 *D OAI22X1
*I *855:A I *C 130.8 115.5 *L 0.0323 *D OAI22X1
*I *847:A I *C 138 94.5 *L 0.0323 *D OAI22X1
*I *839:A I *C 34.8 235.5 *L 0.0323 *D OAI22X1
*I *831:A I *C 34.8 115.5 *L 0.0323 *D OAI22X1

*CAP
1 *1246:Y 0.00019498
2 *894:A 0.00028335
3 *879:A 0.00028335
4 *871:A 0.00028335
5 *863:A 0.00019498
6 *855:A 0.00028335
7 *847:A 0.00028335
8 *839:A 0.00028335
9 *831:A 0.00022313
10 *604:9 0.0106861
11 *604:10 0.0106362
12 *604:11 0.00993436
13 *604:12 0.00978311
14 *604:13 0.00085738
15 *604:14 0.00138091
16 *604:15 0.00138091
17 *604:16 0.00074724
18 *604:17 0.00117511
19 *604:18 0.00117511
20 *604:19 0.00136312
21 *604:20 0.00445515
22 *604:21 0.00157935
23 *604:22 0.00036499
24 *604:23 0.00138973
25 *604:24 0.00047297
26 *604:25 0.00070149
27 *604:26 0.00075461
28 *604:27 0.00135877
29 *604:28 0.00113891
30 *604:29 0.00258415
31 *604:30 0.00225777
32 *604:31 0.00036499
33 *604:32 0.00716678
34 *604:33 0.00343609
35 *604:34 0.00304483
36 *604:35 0.0019996
37 *604:36 0.00204945
38 *604:37 0.00052282
39 *604:38 0.00357586

*RES
1 *604:35 *839:A 4
2 *604:36 *604:35 1.8
3 *604:36 *604:37 0.24
4 *604:26 *831:A 0.225
5 *604:38 *879:A 4
6 *604:38 *604:37 0.3
7 *604:22 *863:A 0.225
8 *604:25 *604:26 0.6
9 *604:33 *604:38 3.3
10 *604:23 *604:22 4
11 *604:24 *604:25 4
12 *604:31 *1246:Y 0.225
13 *604:33 *604:34 0.24
14 *604:30 *894:A 4
15 *604:23 *604:21 1.2
16 *604:21 *604:24 0.3
17 *604:32 *604:31 4
18 *604:32 *604:34 3
19 *604:29 *871:A 4
20 *604:29 *604:30 2.1
21 *604:13 *604:21 4
22 *604:20 *604:32 4.5
23 *604:17 *855:A 4
24 *604:29 *604:27 0.48
25 *604:13 *604:12 0.24
26 *604:12 *604:20 4
27 *604:18 *604:17 0.9
28 *604:15 *847:A 4
29 *604:28 *604:27 0.9
30 *604:12 *604:11 3.04
31 *604:11 *604:18 4
32 *604:15 *604:14 1.2
33 *604:28 *604:9 0.24
34 *604:11 *604:19 0.24
35 *604:19 *604:14 4
36 *604:10 *604:9 9.9
37 *604:19 *604:16 0.16
38 *604:16 *604:10 4
*END

*D_NET *605 0.073822

*CONN
*I *1247:Y O *C 270 211.5 *L 0 *D INVX2
*I *892:A I *C 267.6 355.5 *L 0.0323 *D OAI22X1
*I *878:A I *C 272.4 274.5 *L 0.0323 *D OAI22X1
*I *870:A I *C 272.4 214.5 *L 0.0323 *D OAI22X1
*I *862:A I *C 272.4 55.5 *L 0.0323 *D OAI22X1
*I *854:A I *C 272.4 175.5 *L 0.0323 *D OAI22X1
*I *846:A I *C 274.8 55.5 *L 0.0323 *D OAI22X1
*I *838:A I *C 270 295.5 *L 0.0323 *D OAI22X1
*I *830:A I *C 272.4 115.5 *L 0.0323 *D OAI22X1

*CAP
1 *1247:Y 0.00028335
2 *892:A 0.00028335
3 *878:A 0.00028335
4 *870:A 0.00028335
5 *862:A 0.00028335
6 *854:A 0.00028335
7 *846:A 0.00028335
8 *838:A 0.00028335
9 *830:A 0.00028335
10 *605:9 0.00500209
11 *605:10 0.0045805
12 *605:11 0.00156347
13 *605:12 0.00203491
14 *605:13 0.00423405
15 *605:14 0.0107476
16 *605:15 0.0014542
17 *605:16 0.00150405
18 *605:17 0.00329731
19 *605:18 0.00324746
20 *605:19 0.00107564
21 *605:20 0.00107564
22 *605:21 0.00049639
23 *605:22 0.00038987
24 *605:23 0.00038987
25 *605:24 0.00198533
26 *605:25 0.00849884
27 *605:26 0.00045335
28 *605:27 0.0005032
29 *605:28 0.00038987
30 *605:29 0.00195275
31 *605:30 0.00161955
32 *605:31 0.00469644
33 *605:32 0.00038987
34 *605:33 0.00241502
35 *605:34 0.00257821
36 *605:35 0.00469644

*RES
1 *605:11 *892:A 4
2 *605:12 *605:11 1.5
3 *605:12 *605:9 0.72
4 *605:32 *838:A 4
5 *605:10 *605:9 4.5
6 *605:32 *605:34 0.24
7 *605:34 *605:10 0.24
8 *605:33 *878:A 4
9 *605:33 *605:34 2.1
10 *605:33 *605:35 0.24
11 *605:26 *1247:Y 4
12 *605:31 *605:35 4.5
13 *605:26 *605:27 0.3
14 *605:30 *605:31 0.24
15 *605:27 *605:29 0.24
16 *605:29 *870:A 4
17 *605:29 *605:30 1.5
18 *605:28 *854:A 4
19 *605:29 *605:13 0.24
20 *605:22 *830:A 4
21 *605:28 *605:14 0.24
22 *605:14 *605:13 3.9
23 *605:22 *605:25 0.24
24 *605:25 *605:14 6
25 *605:24 *605:25 1.8
26 *605:24 *605:17 0.24
27 *605:18 *605:17 3
28 *605:19 *605:18 4
29 *605:20 *605:19 0.24
30 *605:15 *605:20 4
31 *605:16 *605:15 1.2
32 *605:23 *846:A 4
33 *605:16 *605:21 0.24
34 *605:21 *605:23 0.24
35 *862:A *605:21 4
*END

*D_NET *606 0.112774

*CONN
*I *1241:Y O *C 75.6 178.5 *L 0 *D INVX2
*I *890:A I *C 159.6 235.5 *L 0.0323 *D OAI22X1
*I *877:A I *C 61.2 175.5 *L 0.0323 *D OAI22X1
*I *869:A I *C 164.4 154.5 *L 0.0323 *D OAI22X1
*I *861:A I *C 58.8 94.5 *L 0.0323 *D OAI22X1
*I *853:A I *C 138 154.5 *L 0.0323 *D OAI22X1
*I *845:A I *C 133.2 55.5 *L 0.0323 *D OAI22X1
*I *837:A I *C 61.2 235.5 *L 0.0323 *D OAI22X1
*I *829:A I *C 63.6 154.5 *L 0.0323 *D OAI22X1

*CAP
1 *1241:Y 0.00028335
2 *890:A 0.00028335
3 *877:A 0.00028335
4 *869:A 0.00028335
5 *861:A 0.00028335
6 *853:A 0.00028335
7 *845:A 0.00019498
8 *837:A 0.00028335
9 *829:A 0.00028335
10 *606:9 0.00078839
11 *606:10 0.00608651
12 *606:11 0.00546813
13 *606:12 0.00295117
14 *606:13 0.00290132
15 *606:14 0.00223097
16 *606:15 0.00223097
17 *606:16 0.00084007
18 *606:17 0.00084007
19 *606:18 0.0058526
20 *606:19 0.00502122
21 *606:20 0.00140493
22 *606:21 0.00135508
23 *606:22 0.00638866
24 *606:23 0.00634722
25 *606:24 0.00551244
26 *606:25 0.00281087
27 *606:26 0.00212087
28 *606:27 0.00212087
29 *606:28 0.00313576
30 *606:29 0.00466013
31 *606:30 0.00483385
32 *606:31 0.0096961
33 *606:32 0.0096961
34 *606:33 0.00244739
35 *606:34 0.00036499
36 *606:35 0.00154512
37 *606:36 0.00154512
38 *606:37 0.00199655
39 *606:38 0.00038987
40 *606:39 0.00109758
41 *606:40 0.00109758
42 *606:41 0.00038987
43 *606:42 0.00127851
44 *606:43 0.00143261
45 *606:44 0.00143261

*RES
1 *606:44 *890:A 4
2 *606:43 *606:44 1.2
3 *606:39 *1241:Y 4
4 *606:31 *606:43 4
5 *606:39 *606:40 0.9
6 *606:21 *861:A 4
7 *606:32 *606:31 3.28
8 *606:42 *837:A 4
9 *606:26 *606:40 4
10 *606:21 *606:20 1.2
11 *606:29 *606:32 4
12 *606:29 *606:42 1.2
13 *606:27 *606:26 0.48
14 *606:20 *606:19 0.24
15 *606:41 *829:A 4
16 *606:30 *606:29 3.6
17 *606:30 *606:27 4
18 *606:19 *606:18 4.8
19 *606:18 *606:41 0.24
20 *606:33 *877:A 4
21 *606:33 *606:30 1.2
22 *606:18 *606:37 0.9
23 *606:37 *606:33 1.2
24 *606:23 *606:37 4
25 *606:17 *869:A 4
26 *606:23 *606:22 1.84
27 *606:17 *606:16 0.6
28 *606:25 *606:22 0.1
29 *606:28 *606:16 4
30 *606:25 *606:24 0.8
31 *606:24 *606:28 0.8
32 *606:38 *853:A 4
33 *606:9 *606:24 4
34 *606:38 *606:10 0.24
35 *606:10 *606:9 0.6
36 *606:11 *606:10 5.1
37 *606:11 *606:12 0.24
38 *606:13 *606:12 2.7
39 *606:36 *606:13 4
40 *606:35 *606:36 0.4
41 *606:14 *606:35 4
42 *606:15 *606:14 2.1
43 *606:34 *606:15 4
44 *606:34 *845:A 0.225
*END

*D_NET *607 0.0765854

*CONN
*I *1248:Y O *C 346.8 118.5 *L 0 *D INVX2
*I *887:A I *C 310.8 214.5 *L 0.0323 *D OAI22X1
*I *876:A I *C 308.4 154.5 *L 0.0323 *D OAI22X1
*I *868:A I *C 354 154.5 *L 0.0323 *D OAI22X1
*I *860:A I *C 354 94.5 *L 0.0323 *D OAI22X1
*I *852:A I *C 318 115.5 *L 0.0323 *D OAI22X1
*I *844:A I *C 354 55.5 *L 0.0323 *D OAI22X1
*I *836:A I *C 342 175.5 *L 0.0323 *D OAI22X1
*I *828:A I *C 310.8 55.5 *L 0.0323 *D OAI22X1

*CAP
1 *1248:Y 0.00136603
2 *887:A 0.000238
3 *876:A 0.00028335
4 *868:A 0.00028335
5 *860:A 0.00028335
6 *852:A 0.000238
7 *844:A 0.00028335
8 *836:A 0.00028335
9 *828:A 0.00041594
10 *607:9 0.00222451
11 *607:10 0.00222451
12 *607:11 0.00347568
13 *607:12 0.00395584
14 *607:13 0.00175639
15 *607:14 0.00208428
16 *607:15 0.00076133
17 *607:16 0.00623555
18 *607:17 0.00601387
19 *607:18 0.00487156
20 *607:19 0.004179
21 *607:20 0.0034836
22 *607:21 0.00040801
23 *607:22 0.00175781
24 *607:23 0.00175781
25 *607:24 0.00376512
26 *607:25 0.00501897
27 *607:26 0.00330863
28 *607:27 0.00149096
29 *607:28 0.00112414
30 *607:29 0.00038673
31 *607:30 0.00038673
32 *607:31 0.00132808
33 *607:32 0.00058595
34 *607:33 0.00037797
35 *607:34 0.00180064
36 *607:35 0.00123935
37 *607:36 0.00040801
38 *607:37 0.00060346
39 *607:38 0.00208911
40 *607:39 0.00208911
41 *607:40 0.00047919
42 *607:41 0.00047919
43 *607:42 0.00075957

*RES
1 *607:39 *836:A 4
2 *607:40 *868:A 4
3 *607:19 *844:A 4
4 *607:38 *607:39 1.8
5 *607:40 *607:41 0.3
6 *607:19 *607:18 3.9
7 *607:18 *860:A 4
8 *607:28 *607:38 4
9 *607:42 *607:41 4
10 *887:A *607:36 0.24
11 *607:18 *607:35 0.9
12 *607:28 *607:27 0.24
13 *607:27 *607:42 0.16
14 *607:11 *607:36 4
15 *607:34 *607:35 0.48
16 *607:24 *607:27 4
17 *607:12 *607:11 3.3
18 *607:34 *607:25 1.5
19 *607:25 *607:24 3.9
20 *607:12 *607:9 0.72
21 *607:33 *607:25 4
22 *607:10 *607:9 1.5
23 *1248:Y *607:33 0.24
24 *607:37 *876:A 4
25 *607:13 *607:10 0.72
26 *607:31 *1248:Y 1.2
27 *828:A *607:32 0.48
28 *607:37 *607:14 0.48
29 *607:14 *607:13 1.2
30 *607:30 *607:31 4
31 *607:17 *607:32 4
32 *607:21 *852:A 0.24
33 *607:15 *607:14 0.6
34 *607:29 *607:30 0.24
35 *607:17 *607:16 6
36 *607:16 *607:21 4
37 *607:15 *607:26 0.24
38 *607:22 *607:29 4
39 *607:16 *607:20 0.3
40 *607:20 *607:26 3
41 *607:23 *607:22 0.56
42 *607:23 *607:20 4
*END

*D_NET *608 0.0911856

*CONN
*I *1244:Y O *C 123.6 31.5 *L 0 *D INVX2
*I *885:A I *C 176.4 175.5 *L 0.0323 *D OAI22X1
*I *875:A I *C 109.2 154.5 *L 0.0323 *D OAI22X1
*I *867:A I *C 174 115.5 *L 0.0323 *D OAI22X1
*I *859:A I *C 109.2 34.5 *L 0.0323 *D OAI22X1
*I *851:A I *C 181.2 55.5 *L 0.0323 *D OAI22X1
*I *843:A I *C 169.2 55.5 *L 0.0323 *D OAI22X1
*I *835:A I *C 111.6 214.5 *L 0.0323 *D OAI22X1
*I *827:A I *C 114 55.5 *L 0.0323 *D OAI22X1

*CAP
1 *1244:Y 0.00019498
2 *885:A 0.00028335
3 *875:A 0.00028335
4 *867:A 0.00028335
5 *859:A 0.00028335
6 *851:A 0.00028335
7 *843:A 0.00028335
8 *835:A 0.00028335
9 *827:A 0.00028335
10 *608:9 0.00682456
11 *608:10 0.00071684
12 *608:11 0.00142016
13 *608:12 0.00147001
14 *608:13 0.00495191
15 *608:14 0.00759203
16 *608:15 0.00388825
17 *608:16 0.00372506
18 *608:17 0.0060451
19 *608:18 0.00326985
20 *608:19 0.0013432
21 *608:20 0.0013432
22 *608:21 0.00245503
23 *608:22 0.00050503
24 *608:23 0.0022832
25 *608:24 0.00660208
26 *608:25 0.00070399
27 *608:26 0.00066255
28 *608:27 0.00671063
29 *608:28 0.00302317
30 *608:29 0.00038987
31 *608:30 0.00038987
32 *608:31 0.00036499
33 *608:32 0.00038987
34 *608:33 0.00038987
35 *608:34 0.00038987
36 *608:35 0.00038987
37 *608:36 0.00787567
38 *608:37 0.00170778
39 *608:38 0.00070149
40 *608:39 0.00070149
41 *608:40 0.00038987
42 *608:41 0.00047494
43 *608:42 0.00074465
44 *608:43 0.00337816
45 *608:44 0.00238973
46 *608:45 0.00212002

*RES
1 *608:45 *885:A 4
2 *608:44 *608:45 1.8
3 *608:31 *1244:Y 0.225
4 *608:42 *608:44 0.48
5 *608:30 *608:31 4
6 *608:41 *608:42 0.3
7 *608:29 *608:30 0.24
8 *608:39 *608:41 4
9 *608:19 *608:29 4
10 *608:11 *835:A 4
11 *608:38 *608:39 0.6
12 *608:20 *608:19 0.32
13 *608:12 *608:11 1.2
14 *608:40 *608:38 4
15 *608:22 *608:20 4
16 *608:13 *608:12 0.24
17 *608:40 *608:43 0.24
18 *608:21 *859:A 4
19 *608:22 *608:21 0.3
20 *608:14 *875:A 4
21 *608:14 *608:13 4.8
22 *608:17 *867:A 4
23 *608:17 *608:43 3.3
24 *608:21 *608:23 2.1
25 *608:32 *827:A 4
26 *608:28 *608:14 3
27 *608:18 *608:17 2.7
28 *608:23 *608:10 0.24
29 *608:10 *608:32 0.24
30 *608:28 *608:27 0.24
31 *608:18 *608:15 0.48
32 *608:35 *851:A 4
33 *608:10 *608:9 0.3
34 *608:9 *608:27 6.6
35 *608:34 *843:A 4
36 *608:16 *608:15 3.3
37 *608:16 *608:35 0.24
38 *608:26 *608:9 4
39 *608:33 *608:34 0.24
40 *608:37 *608:16 4
41 *608:26 *608:25 0.16
42 *608:36 *608:33 4
43 *608:36 *608:37 0.4
44 *608:24 *608:25 0.1
45 *608:24 *608:36 1.68
*END

*D_NET *609 0.0659079

*CONN
*I *1245:Y O *C 378 151.5 *L 0 *D INVX2
*I *883:A I *C 351.6 235.5 *L 0.0323 *D OAI22X1
*I *874:A I *C 361.2 175.5 *L 0.0323 *D OAI22X1
*I *866:A I *C 382.8 175.5 *L 0.0323 *D OAI22X1
*I *858:A I *C 380.4 55.5 *L 0.0323 *D OAI22X1
*I *850:A I *C 354 115.5 *L 0.0323 *D OAI22X1
*I *842:A I *C 385.2 34.5 *L 0.0323 *D OAI22X1
*I *834:A I *C 351.6 214.5 *L 0.0323 *D OAI22X1
*I *826:A I *C 370.8 115.5 *L 0.0323 *D OAI22X1

*CAP
1 *1245:Y 0.00041594
2 *883:A 0.00028335
3 *874:A 0.00028335
4 *866:A 0.00028335
5 *858:A 0.00028335
6 *850:A 0.00028335
7 *842:A 0.000238
8 *834:A 0.00028335
9 *826:A 0.00019498
10 *609:9 0.00218244
11 *609:10 0.00213573
12 *609:11 0.00040801
13 *609:12 0.0044922
14 *609:13 0.00459558
15 *609:14 0.00078839
16 *609:15 0.00078839
17 *609:16 0.00544403
18 *609:17 0.00328468
19 *609:18 0.00156224
20 *609:19 0.0029993
21 *609:20 0.00182981
22 *609:21 0.00339706
23 *609:22 0.00083157
24 *609:23 0.00072819
25 *609:24 0.0026499
26 *609:25 0.0026499
27 *609:26 0.00047297
28 *609:27 0.00047297
29 *609:28 0.00036499
30 *609:29 0.00058595
31 *609:30 0.003521
32 *609:31 0.00509105
33 *609:32 0.00211684
34 *609:33 0.00100581
35 *609:34 0.00073838
36 *609:35 0.00071679
37 *609:36 0.00045335
38 *609:37 0.0004491
39 *609:38 0.0004491
40 *609:39 0.00200229
41 *609:40 0.00200229
42 *609:12 *291:2 0.00107428
43 *609:13 *291:3 0.00107428

*RES
1 *609:32 *883:A 4
2 *609:27 *866:A 4
3 *609:29 *1245:Y 0.48
4 *609:31 *834:A 4
5 *609:31 *609:32 2.1
6 *609:27 *609:26 0.3
7 *609:38 *609:29 4
8 *609:30 *609:31 3.3
9 *609:24 *609:26 4
10 *609:37 *609:38 0.3
11 *609:30 *609:34 0.48
12 *609:25 *609:24 0.88
13 *609:36 *874:A 4
14 *609:40 *609:37 4
15 *609:33 *609:34 0.3
16 *609:33 *609:25 4
17 *609:35 *609:36 0.3
18 *609:39 *609:40 0.56
19 *609:21 *609:33 0.6
20 *609:21 *609:35 0.48
21 *609:16 *609:39 4
22 *609:16 *609:21 2.4
23 *609:17 *609:16 3.3
24 *609:22 *850:A 4
25 *609:22 *609:17 0.24
26 *609:28 *826:A 0.225
27 *609:11 *842:A 0.24
28 *609:23 *609:22 0.6
29 *609:14 *609:28 4
30 *609:10 *609:11 4
31 *609:20 *609:23 4
32 *609:15 *609:14 0.6
33 *609:10 *609:9 2.1
34 *609:20 *609:19 0.48
35 *609:19 *609:15 4
36 *609:13 *858:A 4
37 *609:13 *609:9 0.24
38 *609:19 *609:18 0.4
39 *609:13 *609:12 5.4
40 *609:12 *609:18 4
*END

*D_NET *610 0.116494

*CONN
*I *1242:Y O *C 25.2 178.5 *L 0 *D INVX2
*I *881:A I *C 183.6 154.5 *L 0.0323 *D OAI22X1
*I *873:A I *C 37.2 175.5 *L 0.0323 *D OAI22X1
*I *865:A I *C 190.8 214.5 *L 0.0323 *D OAI22X1
*I *857:A I *C 46.8 55.5 *L 0.0323 *D OAI22X1
*I *849:A I *C 198 94.5 *L 0.0323 *D OAI22X1
*I *841:A I *C 205.2 55.5 *L 0.0323 *D OAI22X1
*I *833:A I *C 25.2 214.5 *L 0.0323 *D OAI22X1
*I *825:A I *C 25.2 55.5 *L 0.0323 *D OAI22X1

*CAP
1 *1242:Y 0.00084892
2 *881:A 0.00069956
3 *873:A 0.00043109
4 *865:A 0.00028335
5 *857:A 0.000238
6 *849:A 0.00028335
7 *841:A 0.00028335
8 *833:A 0.00019498
9 *825:A 0.00028335
10 *610:9 0.00080997
11 *610:10 0.00409426
12 *610:11 0.00356764
13 *610:12 0.00581297
14 *610:13 0.00581297
15 *610:14 0.00399733
16 *610:15 0.00350775
17 *610:16 0.00194761
18 *610:17 0.00242057
19 *610:18 0.00124589
20 *610:19 0.00045335
21 *610:20 0.00045335
22 *610:21 0.00306947
23 *610:22 0.00306947
24 *610:23 0.00457006
25 *610:24 0.00467117
26 *610:25 0.00040801
27 *610:26 0.00642645
28 *610:27 0.00393138
29 *610:28 0.00043431
30 *610:29 0.00159879
31 *610:30 0.00159879
32 *610:31 0.0176812
33 *610:32 0.00036499
34 *610:33 0.00335802
35 *610:34 0.00590294
36 *610:35 0.00036499
37 *610:36 0.00091968
38 *610:37 0.00069683
39 *610:38 0.0176812
40 *610:39 0.00038392
41 *610:40 0.00074539
42 *610:41 0.00094769

*RES
1 *610:15 *841:A 4
2 *610:12 *865:A 4
3 *610:15 *610:14 3.3
4 *610:13 *610:12 5.4
5 *610:18 *610:14 0.72
6 *610:39 *610:13 4
7 *610:18 *610:17 0.6
8 *610:17 *849:A 4
9 *610:40 *610:39 0.24
10 *610:17 *610:16 1.8
11 *610:41 *610:40 0.6
12 *610:29 *610:16 4
13 *881:A *610:41 0.45
14 *610:37 *873:A 0.465
15 *610:30 *610:29 0.48
16 *610:37 *610:36 0.3
17 *857:A *610:25 0.24
18 *610:11 *610:30 4
19 *610:9 *881:A 4
20 *1242:Y *610:36 0.72
21 *610:20 *610:25 4
22 *610:11 *610:10 3.6
23 *610:10 *610:9 0.6
24 *610:32 *833:A 0.225
25 *610:20 *610:19 0.3
26 *610:38 *610:10 4
27 *610:33 *610:32 4
28 *610:35 *1242:Y 0.225
29 *610:21 *610:19 4
30 *610:31 *610:38 5.36
31 *610:34 *610:33 3.6
32 *610:34 *610:35 4
33 *610:28 *825:A 4
34 *610:22 *610:21 0.8
35 *610:26 *610:31 4
36 *610:26 *610:34 3
37 *610:28 *610:24 0.3
38 *610:24 *610:22 4
39 *610:27 *610:26 4.2
40 *610:24 *610:23 4.8
41 *610:27 *610:23 0.24
*END

*D_NET *611 0.0104106

*CONN
*I *1187:Y O *C 267.6 511.5 *L 0 *D OR2X1
*I *666:D I *C 301.2 514.5 *L 0.0162 *D DFFSR

*CAP
1 *1187:Y 0.00020796
2 *666:D 0.00028335
3 *611:2 0.00043544
4 *611:3 0.00043544
5 *611:4 0.00037797
6 *611:5 0.00232721
7 *611:6 0.00232721
8 *611:7 0.00068925
9 *611:8 0.00068925
10 *611:6 *36:21 0.0001993
11 *611:5 *36:22 0.0001993
12 *611:6 *36:22 0.00109614
13 *611:5 *36:23 0.00109614
14 *611:8 *36:24 2.331e-05
15 *611:7 *36:25 2.331e-05

*RES
1 *611:8 *666:D 4
2 *611:7 *611:8 0.6
3 *611:6 *611:7 4
4 *611:5 *611:6 1.04
5 *611:3 *611:5 4
6 *611:3 *611:2 0.3
7 *611:4 *611:2 4
8 *1187:Y *611:4 0.24
*END

*D_NET *612 0.00681698

*CONN
*I *1192:Y O *C 183.6 481.5 *L 0 *D NAND3X1
*I *663:D I *C 188.4 454.5 *L 0.0162 *D DFFSR

*CAP
1 *1192:Y 0.00028335
2 *663:D 0.00028335
3 *612:2 0.00186613
4 *612:3 0.00212375
5 *612:4 0.00100139
6 *612:5 0.00125901

*RES
1 *612:4 *663:D 4
2 *612:4 *612:5 0.9
3 *612:3 *612:5 0.48
4 *612:3 *612:2 1.8
5 *1192:Y *612:2 4
*END

*D_NET *613 0.0194933

*CONN
*I *1196:Y O *C 229.2 481.5 *L 0 *D NAND3X1
*I *664:D I *C 318 475.5 *L 0.0162 *D DFFSR

*CAP
1 *1196:Y 0.00028335
2 *664:D 0.00028335
3 *613:2 0.0004675
4 *613:3 0.0004675
5 *613:4 0.00755219
6 *613:5 0.00755219
7 *613:6 0.00044713
8 *613:7 0.00044713
9 *613:4 *315:13 0.00099649
10 *613:5 *315:14 0.00099649

*RES
1 *613:6 *664:D 4
2 *613:6 *613:7 0.3
3 *613:4 *613:7 4
4 *613:5 *613:4 2.96
5 *613:3 *613:5 4
6 *613:3 *613:2 0.3
7 *613:2 *1196:Y 4
*END

*D_NET *614 0.0081415

*CONN
*I *1203:Y O *C 186 478.5 *L 0 *D OR2X1
*I *665:D I *C 183.6 514.5 *L 0.0162 *D DFFSR

*CAP
1 *1203:Y 0.00028335
2 *665:D 0.00028335
3 *614:2 0.0014829
4 *614:3 0.00143909
5 *614:4 0.00191793
6 *614:5 0.00196174
7 *614:5 *36:7 0.00011655
8 *614:4 *36:8 0.00011655
9 *614:5 *36:9 0.00015347
10 *614:4 *36:10 0.00015347
11 *614:3 *36:11 2.331e-05
12 *614:2 *36:9 2.331e-05
13 *614:3 *36:9 9.324e-05
14 *614:2 *36:10 9.324e-05

*RES
1 *614:4 *1203:Y 4
2 *614:4 *614:5 2.1
3 *614:2 *614:5 0.24
4 *614:2 *614:3 1.5
5 *665:D *614:3 4
*END

*D_NET *615 0.0885673

*CONN
*I *1229:C I *C 248.4 325.5 *L 0.0272 *D NAND3X1
*I *1228:B I *C 226.8 358.5 *L 0.0277 *D NOR2X1
*I *1216:B I *C 246 451.5 *L 0.0277 *D NOR2X1
*I *1204:A I *C 202.8 475.5 *L 0.0323 *D OAI21X1
*I *1191:A I *C 272.4 475.5 *L 0.0214 *D NAND2X1
*I *903:A I *C 181.2 334.5 *L 0.0214 *D NAND2X1
*I *900:A I *C 234 328.5 *L 0.0269 *D NAND3X1
*I *823:A I *C 262.8 394.5 *L 0.0333 *D INVX2
*I *666:Q O *C 272.4 505.5 *L 0 *D DFFSR

*CAP
1 *1229:C 0.00019498
2 *1228:B 0.000238
3 *1216:B 0.00028335
4 *1204:A 0.00065778
5 *1191:A 0.00028335
6 *903:A 0.00125682
7 *900:A 0.00028335
8 *823:A 0.00019498
9 *666:Q 0.00028335
10 *615:9 0.00411008
11 *615:10 0.00358656
12 *615:11 0.00293598
13 *615:12 0.00362591
14 *615:13 0.00702651
15 *615:14 0.00955853
16 *615:15 0.00281537
17 *615:16 0.00097375
18 *615:17 0.00097375
19 *615:18 0.00142683
20 *615:19 0.00155406
21 *615:20 0.00254887
22 *615:21 0.0052207
23 *615:22 0.0041794
24 *615:23 0.00047297
25 *615:24 0.00047297
26 *615:25 0.00050503
27 *615:26 0.00050503
28 *615:27 0.00080687
29 *615:28 0.00040801
30 *615:29 0.00421913
31 *615:30 0.00421913
32 *615:31 0.00170672
33 *615:32 0.00170672
34 *615:33 0.00082779
35 *615:34 0.00109758
36 *615:35 0.00109758
37 *615:36 0.00297958
38 *615:37 0.0055073
39 *615:38 0.00407587
40 *615:39 0.00036499
41 *615:40 0.00049535
42 *615:41 0.00036499
43 *615:42 0.00097328
44 *615:43 0.00154815

*RES
1 *1204:A *615:33 0.705
2 *615:34 *615:33 4
3 *615:11 *666:Q 4
4 *615:32 *1216:B 4
5 *615:35 *615:34 0.9
6 *615:12 *1191:A 4
7 *615:12 *615:11 3
8 *615:32 *615:31 1.5
9 *615:38 *615:35 4
10 *615:42 *615:12 0.9
11 *615:37 *615:31 4
12 *615:38 *615:37 1.2
13 *615:43 *615:42 4
14 *615:37 *615:36 0.48
15 *615:36 *615:43 0.4
16 *615:41 *823:A 0.225
17 *615:13 *615:36 4
18 *615:39 *1229:C 0.225
19 *615:14 *615:41 4
20 *615:14 *615:13 7.2
21 *615:23 *615:39 4
22 *615:15 *615:14 3
23 *903:A *615:18 1.185
24 *615:24 *615:23 0.3
25 *615:29 *615:15 4
26 *615:16 *615:18 4
27 *615:25 *900:A 4
28 *615:40 *615:24 4
29 *615:30 *615:29 1.2
30 *615:17 *615:16 0.9
31 *615:26 *615:25 0.3
32 *615:40 *615:19 0.1
33 *615:28 *1228:B 0.24
34 *615:27 *615:30 4
35 *615:22 *615:17 4
36 *615:20 *615:26 4
37 *615:20 *615:19 0.4
38 *615:9 *615:28 4
39 *615:9 *615:27 0.6
40 *615:22 *615:21 1.04
41 *615:21 *615:20 0.32
42 *615:10 *615:9 3.3
43 *615:10 *615:21 4
*END

*D_NET *616 0.039831

*CONN
*I *1227:A I *C 200.4 361.5 *L 0.0269 *D NAND3X1
*I *1217:C I *C 238.8 364.5 *L 0.0272 *D NAND3X1
*I *1200:C I *C 207.6 424.5 *L 0.0272 *D NAND3X1
*I *1198:B I *C 202.8 391.5 *L 0.0277 *D NOR2X1
*I *899:A I *C 207.6 361.5 *L 0.0269 *D NAND3X1
*I *747:A I *C 241.2 394.5 *L 0.0333 *D INVX2
*I *663:Q O *C 217.2 445.5 *L 0 *D DFFSR

*CAP
1 *1227:A 0.00028335
2 *1217:C 0.00038994
3 *1200:C 0.00028335
4 *1198:B 0.00028335
5 *899:A 0.00028335
6 *747:A 0.00065394
7 *663:Q 0.00028335
8 *616:7 0.00198782
9 *616:8 0.00198782
10 *616:9 0.00298443
11 *616:10 0.00298443
12 *616:11 0.00310501
13 *616:12 0.00078839
14 *616:13 0.00259997
15 *616:14 0.0051159
16 *616:15 0.00350531
17 *616:16 0.002623
18 *616:17 0.00082395
19 *616:18 0.0011286
20 *616:19 0.0011286
21 *616:20 0.00047494
22 *616:21 0.00130649
23 *616:22 0.00137252
24 *616:23 0.00109758
25 *616:24 0.00141187
26 *616:25 0.00055995
27 *616:26 0.00038383

*RES
1 *616:7 *663:Q 4
2 *616:8 *616:7 1.8
3 *616:18 *616:8 4
4 *616:19 *616:18 0.32
5 *616:20 *616:19 4
6 *616:21 *1200:C 4
7 *616:21 *616:20 0.3
8 *616:22 *616:21 0.9
9 *616:25 *1217:C 0.45
10 *616:17 *747:A 0.72
11 *616:16 *616:22 0.48
12 *616:12 *616:25 4
13 *616:13 *616:17 4
14 *616:26 *1227:A 4
15 *616:14 *1198:B 4
16 *616:14 *616:16 2.4
17 *616:12 *616:11 0.6
18 *616:11 *616:13 2.4
19 *616:26 *616:15 0.24
20 *616:15 *616:14 3
21 *616:9 *616:11 4
22 *616:15 *616:24 0.48
23 *616:24 *899:A 4
24 *616:10 *616:9 0.88
25 *616:24 *616:23 0.9
26 *616:23 *616:10 4
*END

*D_NET *617 0.0567198

*CONN
*I *1189:A I *C 270 475.5 *L 0.0323 *D OAI21X1
*I *1049:B I *C 301.2 451.5 *L 0.0277 *D NOR2X1
*I *1045:A I *C 301.2 355.5 *L 0.0214 *D NAND2X1
*I *900:C I *C 229.2 325.5 *L 0.0272 *D NAND3X1
*I *749:A I *C 248.4 355.5 *L 0.0333 *D INVX2
*I *664:Q O *C 289.2 484.5 *L 0 *D DFFSR

*CAP
1 *1189:A 0.00028335
2 *1049:B 0.00115995
3 *1045:A 0.00028335
4 *900:C 0.00028335
5 *749:A 0.00028335
6 *664:Q 0.0004253
7 *617:6 0.00107892
8 *617:7 0.00107892
9 *617:8 0.0120397
10 *617:9 0.0091162
11 *617:10 0.00292255
12 *617:11 0.00292255
13 *617:12 0.0004675
14 *617:13 0.0004675
15 *617:14 0.0004675
16 *617:15 0.0004675
17 *617:16 0.0032507
18 *617:17 0.00132996
19 *617:18 0.00059531
20 *617:19 0.00171466
21 *617:20 0.00171466
22 *617:21 0.00194947
23 *617:22 0.00479995
24 *617:23 0.00130257
25 *617:24 0.00544685
26 *617:25 0.00038383
27 *617:26 0.00048431

*RES
1 *617:7 *1189:A 4
2 *617:7 *617:6 0.9
3 *617:18 *664:Q 0.48
4 *617:20 *617:6 4
5 *617:25 *617:18 4
6 *617:20 *617:19 0.56
7 *617:25 *617:26 0.24
8 *617:26 *617:19 4
9 *617:17 *1049:B 1.2
10 *617:26 *617:16 0.24
11 *617:12 *1045:A 4
12 *617:8 *617:17 4
13 *617:8 *617:16 3.3
14 *617:13 *617:12 0.3
15 *617:14 *749:A 4
16 *617:9 *617:8 9.9
17 *617:23 *617:13 4
18 *617:15 *617:14 0.3
19 *617:22 *617:9 4
20 *617:22 *617:23 0.4
21 *617:24 *617:15 4
22 *617:24 *617:22 1.36
23 *617:21 *617:24 0.64
24 *617:10 *617:21 4
25 *617:11 *900:C 4
26 *617:11 *617:10 2.7
*END

*D_NET *618 0.0354678

*CONN
*I *1200:A I *C 202.8 421.5 *L 0.0269 *D NAND3X1
*I *899:B I *C 210 358.5 *L 0.0269 *D NAND3X1
*I *750:A I *C 205.2 394.5 *L 0.0333 *D INVX2
*I *665:Q O *C 212.4 505.5 *L 0 *D DFFSR

*CAP
1 *1200:A 0.00019498
2 *899:B 0.00028335
3 *750:A 0.00028335
4 *665:Q 0.00028335
5 *618:4 0.00693262
6 *618:5 0.00386153
7 *618:6 0.00080526
8 *618:7 0.00080526
9 *618:8 0.00656084
10 *618:9 0.00390452
11 *618:10 0.00323985
12 *618:11 0.00302604
13 *618:12 0.00047919
14 *618:13 0.00047919
15 *618:14 0.00155412
16 *618:15 0.00181174
17 *618:16 0.00059764
18 *618:17 0.00036499

*RES
1 *1200:A *618:17 0.225
2 *618:14 *665:Q 4
3 *618:13 *618:17 4
4 *618:15 *618:14 1.5
5 *618:13 *618:12 0.3
6 *618:10 *618:15 0.48
7 *618:7 *618:12 4
8 *618:11 *618:10 2.7
9 *618:7 *618:6 0.16
10 *618:11 *618:9 0.24
11 *618:16 *750:A 4
12 *618:8 *618:6 4
13 *618:8 *618:9 3.9
14 *618:16 *618:4 0.48
15 *618:4 *618:8 3
16 *618:5 *899:B 4
17 *618:5 *618:4 3.6
*END

